generated by phonopy
   1.0
    -1.8965517941931918    1.8965517941931918   10.0352128579994879
     1.8965517941931918   -1.8965517941931918   10.0352128579994879
     1.8965517941931918    1.8965517941931918  -10.0352128579994879
La Ni O
   3    2    7
Direct
  0.5000000000000000  0.5000000000000000  0.0000000000000000
  0.6787492969306683  0.6787492969306683  0.0000000000000000
  0.3212507030693317  0.3212507030693317  0.0000000000000000
  0.0975275243985152  0.0975275243985152  0.0000000000000000
  0.9024724756014848  0.9024724756014848  0.0000000000000000
  0.9031663352030037  0.4031663352030037  0.5000000000000000
  0.0968336647969963  0.5968336647969963  0.5000000000000000
  0.4031663352030037  0.9031663352030037  0.5000000000000000
  0.5968336647969963  0.0968336647969963  0.5000000000000000
  0.7966963190937548  0.7966963190937548  0.0000000000000000
  0.2033036809062452  0.2033036809062452  0.0000000000000000
  0.0000000000000000  0.0000000000000000  0.0000000000000000
