generated by phonopy
   1.0
     0.0000000000000000    5.0928241399999994    5.0928241399999994
     5.0928241399999994    0.0000000000000000    5.0928241399999994
     5.0928241399999994    5.0928241399999994    0.0000000000000000
Y Ir O
   4    4   14
Direct
  0.6250000000000000  0.1250000000000000  0.1250000000000000
  0.1250000000000000  0.6250000000000000  0.1250000000000000
  0.1250000000000000  0.1250000000000000  0.6250000000000000
  0.1250000000000000  0.1250000000000000  0.1250000000000000
  0.1250000000000000  0.6250000000000000  0.6250000000000000
  0.6250000000000000  0.1250000000000000  0.6250000000000000
  0.6250000000000000  0.6250000000000000  0.1250000000000000
  0.6250000000000000  0.6250000000000000  0.6250000000000000
  0.7129323599999999  0.7129323599999999  0.2870676400000000
  0.2870676400000000  0.2870676400000000  0.7129323599999999
  0.7129323599999999  0.2870676400000001  0.7129323599999999
  0.2870676400000000  0.7129323599999999  0.2870676400000001
  0.2870676400000000  0.7129323599999999  0.7129323599999999
  0.7129323599999999  0.2870676400000001  0.2870676400000001
  0.5370676400000001  0.5370676400000001  0.9629323599999999
  0.9629323599999999  0.9629323599999999  0.5370676400000001
  0.5370676400000001  0.9629323599999999  0.5370676400000001
  0.9629323599999999  0.5370676400000001  0.9629323599999999
  0.9629323599999999  0.5370676400000001  0.5370676400000001
  0.5370676400000001  0.9629323599999999  0.9629323599999999
  0.2500000000000000  0.2500000000000000  0.2500000000000000
  0.0000000000000000  0.0000000000000000  0.0000000000000000
