#VESTA_FORMAT_VERSION 3.3.0


CRYSTAL

TITLE
Y2Ir2O7 spin basis: GM5+(3) octupole comp1

GROUP
1 1 P 1
SYMOP
 0.000000  0.000000  0.000000  1  0  0   0  1  0   0  0  1   1
 -1.0 -1.0 -1.0  0 0 0  0 0 0  0 0 0
TRANM 0
 0.000000  0.000000  0.000000  1  0  0   0  1  0   0  0  1
LTRANSL
 -1
 0.000000  0.000000  0.000000  0.000000  0.000000  0.000000
LORIENT
 -1   0   0   0   0
 1.000000  0.000000  0.000000  1.000000  0.000000  0.000000
 0.000000  0.000000  1.000000  0.000000  0.000000  1.000000
LMATRIX
 1.000000  0.000000  0.000000  0.000000
 0.000000  1.000000  0.000000  0.000000
 0.000000  0.000000  1.000000  0.000000
 0.000000  0.000000  0.000000  1.000000
 0.000000  0.000000  0.000000
CELLP
  10.185648  10.185648  10.185648  90.000000  90.000000  90.000000
  0.000000   0.000000   0.000000   0.000000   0.000000   0.000000
STRUC
  1 Y         Y1   1.0000   0.125000   0.375000   0.375000    1a       1
                            0.000000   0.000000   0.000000  0.00
  2 Y         Y2   1.0000   0.375000   0.125000   0.375000    1a       1
                            0.000000   0.000000   0.000000  0.00
  3 Y         Y3   1.0000   0.375000   0.375000   0.125000    1a       1
                            0.000000   0.000000   0.000000  0.00
  4 Y         Y4   1.0000   0.125000   0.125000   0.125000    1a       1
                            0.000000   0.000000   0.000000  0.00
  5 Ir        Ir1  1.0000   0.625000   0.375000   0.375000    1a       1
                            0.000000   0.000000   0.000000  0.00
  6 Ir        Ir2  1.0000   0.375000   0.625000   0.375000    1a       1
                            0.000000   0.000000   0.000000  0.00
  7 Ir        Ir3  1.0000   0.375000   0.375000   0.625000    1a       1
                            0.000000   0.000000   0.000000  0.00
  8 Ir        Ir4  1.0000   0.625000   0.625000   0.625000    1a       1
                            0.000000   0.000000   0.000000  0.00
  9 O         O1   1.0000   0.500000   0.500000   0.712932    1a       1
                            0.000000   0.000000   0.000000  0.00
  10 O         O2   1.0000   0.500000   0.500000   0.287068    1a       1
                            0.000000   0.000000   0.000000  0.00
  11 O         O3   1.0000   0.500000   0.712932   0.500000    1a       1
                            0.000000   0.000000   0.000000  0.00
  12 O         O4   1.0000   0.500000   0.287068   0.500000    1a       1
                            0.000000   0.000000   0.000000  0.00
  13 O         O5   1.0000   0.712932   0.500000   0.500000    1a       1
                            0.000000   0.000000   0.000000  0.00
  14 O         O6   1.0000   0.287068   0.500000   0.500000    1a       1
                            0.000000   0.000000   0.000000  0.00
  15 O         O7   1.0000   0.750000   0.750000   0.537068    1a       1
                            0.000000   0.000000   0.000000  0.00
  16 O         O8   1.0000   0.750000   0.750000   0.962932    1a       1
                            0.000000   0.000000   0.000000  0.00
  17 O         O9   1.0000   0.750000   0.537068   0.750000    1a       1
                            0.000000   0.000000   0.000000  0.00
  18 O         O10  1.0000   0.750000   0.962932   0.750000    1a       1
                            0.000000   0.000000   0.000000  0.00
  19 O         O11  1.0000   0.537068   0.750000   0.750000    1a       1
                            0.000000   0.000000   0.000000  0.00
  20 O         O12  1.0000   0.962932   0.750000   0.750000    1a       1
                            0.000000   0.000000   0.000000  0.00
  21 O         O13  1.0000   0.250000   0.250000   0.250000    1a       1
                            0.000000   0.000000   0.000000  0.00
  22 O         O14  1.0000   0.000000   0.000000   0.000000    1a       1
                            0.000000   0.000000   0.000000  0.00
  23 Y         Y5   1.0000   0.625000   0.875000   0.375000    1a       1
                            0.000000   0.000000   0.000000  0.00
  24 Y         Y6   1.0000   0.875000   0.625000   0.375000    1a       1
                            0.000000   0.000000   0.000000  0.00
  25 Y         Y7   1.0000   0.875000   0.875000   0.125000    1a       1
                            0.000000   0.000000   0.000000  0.00
  26 Y         Y8   1.0000   0.625000   0.625000   0.125000    1a       1
                            0.000000   0.000000   0.000000  0.00
  27 Ir        Ir5  1.0000   0.125000   0.875000   0.375000    1a       1
                            0.000000   0.000000   0.000000  0.00
  28 Ir        Ir6  1.0000   0.875000   0.125000   0.375000    1a       1
                            0.000000   0.000000   0.000000  0.00
  29 Ir        Ir7  1.0000   0.875000   0.875000   0.625000    1a       1
                            0.000000   0.000000   0.000000  0.00
  30 Ir        Ir8  1.0000   0.125000   0.125000   0.625000    1a       1
                            0.000000   0.000000   0.000000  0.00
  31 O         O15  1.0000   0.000000   0.000000   0.712932    1a       1
                            0.000000   0.000000   0.000000  0.00
  32 O         O16  1.0000   0.000000   0.000000   0.287068    1a       1
                            0.000000   0.000000   0.000000  0.00
  33 O         O17  1.0000   0.000000   0.212932   0.500000    1a       1
                            0.000000   0.000000   0.000000  0.00
  34 O         O18  1.0000   0.000000   0.787068   0.500000    1a       1
                            0.000000   0.000000   0.000000  0.00
  35 O         O19  1.0000   0.212932   0.000000   0.500000    1a       1
                            0.000000   0.000000   0.000000  0.00
  36 O         O20  1.0000   0.787068   0.000000   0.500000    1a       1
                            0.000000   0.000000   0.000000  0.00
  37 O         O21  1.0000   0.250000   0.250000   0.537068    1a       1
                            0.000000   0.000000   0.000000  0.00
  38 O         O22  1.0000   0.250000   0.250000   0.962932    1a       1
                            0.000000   0.000000   0.000000  0.00
  39 O         O23  1.0000   0.250000   0.037068   0.750000    1a       1
                            0.000000   0.000000   0.000000  0.00
  40 O         O24  1.0000   0.250000   0.462932   0.750000    1a       1
                            0.000000   0.000000   0.000000  0.00
  41 O         O25  1.0000   0.037068   0.250000   0.750000    1a       1
                            0.000000   0.000000   0.000000  0.00
  42 O         O26  1.0000   0.462932   0.250000   0.750000    1a       1
                            0.000000   0.000000   0.000000  0.00
  43 O         O27  1.0000   0.750000   0.750000   0.250000    1a       1
                            0.000000   0.000000   0.000000  0.00
  44 O         O28  1.0000   0.500000   0.500000   0.000000    1a       1
                            0.000000   0.000000   0.000000  0.00
  45 Y         Y9   1.0000   0.625000   0.375000   0.875000    1a       1
                            0.000000   0.000000   0.000000  0.00
  46 Y         Y10  1.0000   0.875000   0.125000   0.875000    1a       1
                            0.000000   0.000000   0.000000  0.00
  47 Y         Y11  1.0000   0.875000   0.375000   0.625000    1a       1
                            0.000000   0.000000   0.000000  0.00
  48 Y         Y12  1.0000   0.625000   0.125000   0.625000    1a       1
                            0.000000   0.000000   0.000000  0.00
  49 Ir        Ir9  1.0000   0.125000   0.375000   0.875000    1a       1
                            0.000000   0.000000   0.000000  0.00
  50 Ir        Ir10 1.0000   0.875000   0.625000   0.875000    1a       1
                            0.000000   0.000000   0.000000  0.00
  51 Ir        Ir11 1.0000   0.875000   0.375000   0.125000    1a       1
                            0.000000   0.000000   0.000000  0.00
  52 Ir        Ir12 1.0000   0.125000   0.625000   0.125000    1a       1
                            0.000000   0.000000   0.000000  0.00
  53 O         O29  1.0000   0.000000   0.500000   0.212932    1a       1
                            0.000000   0.000000   0.000000  0.00
  54 O         O30  1.0000   0.000000   0.500000   0.787068    1a       1
                            0.000000   0.000000   0.000000  0.00
  55 O         O31  1.0000   0.000000   0.712932   0.000000    1a       1
                            0.000000   0.000000   0.000000  0.00
  56 O         O32  1.0000   0.000000   0.287068   0.000000    1a       1
                            0.000000   0.000000   0.000000  0.00
  57 O         O33  1.0000   0.212932   0.500000   0.000000    1a       1
                            0.000000   0.000000   0.000000  0.00
  58 O         O34  1.0000   0.787068   0.500000   0.000000    1a       1
                            0.000000   0.000000   0.000000  0.00
  59 O         O35  1.0000   0.250000   0.750000   0.037068    1a       1
                            0.000000   0.000000   0.000000  0.00
  60 O         O36  1.0000   0.250000   0.750000   0.462932    1a       1
                            0.000000   0.000000   0.000000  0.00
  61 O         O37  1.0000   0.250000   0.537068   0.250000    1a       1
                            0.000000   0.000000   0.000000  0.00
  62 O         O38  1.0000   0.250000   0.962932   0.250000    1a       1
                            0.000000   0.000000   0.000000  0.00
  63 O         O39  1.0000   0.037068   0.750000   0.250000    1a       1
                            0.000000   0.000000   0.000000  0.00
  64 O         O40  1.0000   0.462932   0.750000   0.250000    1a       1
                            0.000000   0.000000   0.000000  0.00
  65 O         O41  1.0000   0.750000   0.250000   0.750000    1a       1
                            0.000000   0.000000   0.000000  0.00
  66 O         O42  1.0000   0.500000   0.000000   0.500000    1a       1
                            0.000000   0.000000   0.000000  0.00
  67 Y         Y13  1.0000   0.125000   0.875000   0.875000    1a       1
                            0.000000   0.000000   0.000000  0.00
  68 Y         Y14  1.0000   0.375000   0.625000   0.875000    1a       1
                            0.000000   0.000000   0.000000  0.00
  69 Y         Y15  1.0000   0.375000   0.875000   0.625000    1a       1
                            0.000000   0.000000   0.000000  0.00
  70 Y         Y16  1.0000   0.125000   0.625000   0.625000    1a       1
                            0.000000   0.000000   0.000000  0.00
  71 Ir        Ir13 1.0000   0.625000   0.875000   0.875000    1a       1
                            0.000000   0.000000   0.000000  0.00
  72 Ir        Ir14 1.0000   0.375000   0.125000   0.875000    1a       1
                            0.000000   0.000000   0.000000  0.00
  73 Ir        Ir15 1.0000   0.375000   0.875000   0.125000    1a       1
                            0.000000   0.000000   0.000000  0.00
  74 Ir        Ir16 1.0000   0.625000   0.125000   0.125000    1a       1
                            0.000000   0.000000   0.000000  0.00
  75 O         O43  1.0000   0.500000   0.000000   0.212932    1a       1
                            0.000000   0.000000   0.000000  0.00
  76 O         O44  1.0000   0.500000   0.000000   0.787068    1a       1
                            0.000000   0.000000   0.000000  0.00
  77 O         O45  1.0000   0.500000   0.212932   0.000000    1a       1
                            0.000000   0.000000   0.000000  0.00
  78 O         O46  1.0000   0.500000   0.787068   0.000000    1a       1
                            0.000000   0.000000   0.000000  0.00
  79 O         O47  1.0000   0.712932   0.000000   0.000000    1a       1
                            0.000000   0.000000   0.000000  0.00
  80 O         O48  1.0000   0.287068   0.000000   0.000000    1a       1
                            0.000000   0.000000   0.000000  0.00
  81 O         O49  1.0000   0.750000   0.250000   0.037068    1a       1
                            0.000000   0.000000   0.000000  0.00
  82 O         O50  1.0000   0.750000   0.250000   0.462932    1a       1
                            0.000000   0.000000   0.000000  0.00
  83 O         O51  1.0000   0.750000   0.037068   0.250000    1a       1
                            0.000000   0.000000   0.000000  0.00
  84 O         O52  1.0000   0.750000   0.462932   0.250000    1a       1
                            0.000000   0.000000   0.000000  0.00
  85 O         O53  1.0000   0.537068   0.250000   0.250000    1a       1
                            0.000000   0.000000   0.000000  0.00
  86 O         O54  1.0000   0.962932   0.250000   0.250000    1a       1
                            0.000000   0.000000   0.000000  0.00
  87 O         O55  1.0000   0.250000   0.750000   0.750000    1a       1
                            0.000000   0.000000   0.000000  0.00
  88 O         O56  1.0000   0.000000   0.500000   0.500000    1a       1
                            0.000000   0.000000   0.000000  0.00
  0 0 0 0 0 0 0
THERI 0
  1         Y1  1.000000
  2         Y2  1.000000
  3         Y3  1.000000
  4         Y4  1.000000
  5        Ir1  1.000000
  6        Ir2  1.000000
  7        Ir3  1.000000
  8        Ir4  1.000000
  9         O1  1.000000
  10         O2  1.000000
  11         O3  1.000000
  12         O4  1.000000
  13         O5  1.000000
  14         O6  1.000000
  15         O7  1.000000
  16         O8  1.000000
  17         O9  1.000000
  18        O10  1.000000
  19        O11  1.000000
  20        O12  1.000000
  21        O13  1.000000
  22        O14  1.000000
  23         Y5  1.000000
  24         Y6  1.000000
  25         Y7  1.000000
  26         Y8  1.000000
  27        Ir5  1.000000
  28        Ir6  1.000000
  29        Ir7  1.000000
  30        Ir8  1.000000
  31        O15  1.000000
  32        O16  1.000000
  33        O17  1.000000
  34        O18  1.000000
  35        O19  1.000000
  36        O20  1.000000
  37        O21  1.000000
  38        O22  1.000000
  39        O23  1.000000
  40        O24  1.000000
  41        O25  1.000000
  42        O26  1.000000
  43        O27  1.000000
  44        O28  1.000000
  45         Y9  1.000000
  46        Y10  1.000000
  47        Y11  1.000000
  48        Y12  1.000000
  49        Ir9  1.000000
  50       Ir10  1.000000
  51       Ir11  1.000000
  52       Ir12  1.000000
  53        O29  1.000000
  54        O30  1.000000
  55        O31  1.000000
  56        O32  1.000000
  57        O33  1.000000
  58        O34  1.000000
  59        O35  1.000000
  60        O36  1.000000
  61        O37  1.000000
  62        O38  1.000000
  63        O39  1.000000
  64        O40  1.000000
  65        O41  1.000000
  66        O42  1.000000
  67        Y13  1.000000
  68        Y14  1.000000
  69        Y15  1.000000
  70        Y16  1.000000
  71       Ir13  1.000000
  72       Ir14  1.000000
  73       Ir15  1.000000
  74       Ir16  1.000000
  75        O43  1.000000
  76        O44  1.000000
  77        O45  1.000000
  78        O46  1.000000
  79        O47  1.000000
  80        O48  1.000000
  81        O49  1.000000
  82        O50  1.000000
  83        O51  1.000000
  84        O52  1.000000
  85        O53  1.000000
  86        O54  1.000000
  87        O55  1.000000
  88        O56  1.000000
  0 0 0
SHAPE
  0       0       0       0   0.000000  0   192   192   192   192
BOUND
       0        1         0        1         0        1
  0   0   0   0  0
SBOND
  0 0 0 0
SITET
  1         Y1  1.8200 103 152 142 103 152 142 204  0
  2         Y2  1.8200 103 152 142 103 152 142 204  0
  3         Y3  1.8200 103 152 142 103 152 142 204  0
  4         Y4  1.8200 103 152 142 103 152 142 204  0
  5        Ir1  1.3600 201 207 115 201 207 115 204  0
  6        Ir2  1.3600 201 207 115 201 207 115 204  0
  7        Ir3  1.3600 201 207 115 201 207 115 204  0
  8        Ir4  1.3600 201 207 115 201 207 115 204  0
  9         O1  0.7400 255   3   0 255   3   0 204  0
  10         O2  0.7400 255   3   0 255   3   0 204  0
  11         O3  0.7400 255   3   0 255   3   0 204  0
  12         O4  0.7400 255   3   0 255   3   0 204  0
  13         O5  0.7400 255   3   0 255   3   0 204  0
  14         O6  0.7400 255   3   0 255   3   0 204  0
  15         O7  0.7400 255   3   0 255   3   0 204  0
  16         O8  0.7400 255   3   0 255   3   0 204  0
  17         O9  0.7400 255   3   0 255   3   0 204  0
  18        O10  0.7400 255   3   0 255   3   0 204  0
  19        O11  0.7400 255   3   0 255   3   0 204  0
  20        O12  0.7400 255   3   0 255   3   0 204  0
  21        O13  0.7400 255   3   0 255   3   0 204  0
  22        O14  0.7400 255   3   0 255   3   0 204  0
  23         Y5  1.8200 103 152 142 103 152 142 204  0
  24         Y6  1.8200 103 152 142 103 152 142 204  0
  25         Y7  1.8200 103 152 142 103 152 142 204  0
  26         Y8  1.8200 103 152 142 103 152 142 204  0
  27        Ir5  1.3600 201 207 115 201 207 115 204  0
  28        Ir6  1.3600 201 207 115 201 207 115 204  0
  29        Ir7  1.3600 201 207 115 201 207 115 204  0
  30        Ir8  1.3600 201 207 115 201 207 115 204  0
  31        O15  0.7400 255   3   0 255   3   0 204  0
  32        O16  0.7400 255   3   0 255   3   0 204  0
  33        O17  0.7400 255   3   0 255   3   0 204  0
  34        O18  0.7400 255   3   0 255   3   0 204  0
  35        O19  0.7400 255   3   0 255   3   0 204  0
  36        O20  0.7400 255   3   0 255   3   0 204  0
  37        O21  0.7400 255   3   0 255   3   0 204  0
  38        O22  0.7400 255   3   0 255   3   0 204  0
  39        O23  0.7400 255   3   0 255   3   0 204  0
  40        O24  0.7400 255   3   0 255   3   0 204  0
  41        O25  0.7400 255   3   0 255   3   0 204  0
  42        O26  0.7400 255   3   0 255   3   0 204  0
  43        O27  0.7400 255   3   0 255   3   0 204  0
  44        O28  0.7400 255   3   0 255   3   0 204  0
  45         Y9  1.8200 103 152 142 103 152 142 204  0
  46        Y10  1.8200 103 152 142 103 152 142 204  0
  47        Y11  1.8200 103 152 142 103 152 142 204  0
  48        Y12  1.8200 103 152 142 103 152 142 204  0
  49        Ir9  1.3600 201 207 115 201 207 115 204  0
  50       Ir10  1.3600 201 207 115 201 207 115 204  0
  51       Ir11  1.3600 201 207 115 201 207 115 204  0
  52       Ir12  1.3600 201 207 115 201 207 115 204  0
  53        O29  0.7400 255   3   0 255   3   0 204  0
  54        O30  0.7400 255   3   0 255   3   0 204  0
  55        O31  0.7400 255   3   0 255   3   0 204  0
  56        O32  0.7400 255   3   0 255   3   0 204  0
  57        O33  0.7400 255   3   0 255   3   0 204  0
  58        O34  0.7400 255   3   0 255   3   0 204  0
  59        O35  0.7400 255   3   0 255   3   0 204  0
  60        O36  0.7400 255   3   0 255   3   0 204  0
  61        O37  0.7400 255   3   0 255   3   0 204  0
  62        O38  0.7400 255   3   0 255   3   0 204  0
  63        O39  0.7400 255   3   0 255   3   0 204  0
  64        O40  0.7400 255   3   0 255   3   0 204  0
  65        O41  0.7400 255   3   0 255   3   0 204  0
  66        O42  0.7400 255   3   0 255   3   0 204  0
  67        Y13  1.8200 103 152 142 103 152 142 204  0
  68        Y14  1.8200 103 152 142 103 152 142 204  0
  69        Y15  1.8200 103 152 142 103 152 142 204  0
  70        Y16  1.8200 103 152 142 103 152 142 204  0
  71       Ir13  1.3600 201 207 115 201 207 115 204  0
  72       Ir14  1.3600 201 207 115 201 207 115 204  0
  73       Ir15  1.3600 201 207 115 201 207 115 204  0
  74       Ir16  1.3600 201 207 115 201 207 115 204  0
  75        O43  0.7400 255   3   0 255   3   0 204  0
  76        O44  0.7400 255   3   0 255   3   0 204  0
  77        O45  0.7400 255   3   0 255   3   0 204  0
  78        O46  0.7400 255   3   0 255   3   0 204  0
  79        O47  0.7400 255   3   0 255   3   0 204  0
  80        O48  0.7400 255   3   0 255   3   0 204  0
  81        O49  0.7400 255   3   0 255   3   0 204  0
  82        O50  0.7400 255   3   0 255   3   0 204  0
  83        O51  0.7400 255   3   0 255   3   0 204  0
  84        O52  0.7400 255   3   0 255   3   0 204  0
  85        O53  0.7400 255   3   0 255   3   0 204  0
  86        O54  0.7400 255   3   0 255   3   0 204  0
  87        O55  0.7400 255   3   0 255   3   0 204  0
  88        O56  0.7400 255   3   0 255   3   0 204  0
  0 0 0 0 0 0
VECTR
    1   0.00000   0.00000   0.00000
    1 0 0 0 0
  0 0 0 0 0
    2   0.00000   0.00000   0.00000
    2 0 0 0 0
  0 0 0 0 0
    3   0.00000   0.00000   0.00000
    3 0 0 0 0
  0 0 0 0 0
    4   0.00000   0.00000   0.00000
    4 0 0 0 0
  0 0 0 0 0
    5   0.00000   1.06066  -1.06066
    5 0 0 0 0
  0 0 0 0 0
    6   0.00000   1.06066   1.06066
    6 0 0 0 0
  0 0 0 0 0
    7   0.00000  -1.06066  -1.06066
    7 0 0 0 0
  0 0 0 0 0
    8   0.00000  -1.06066   1.06066
    8 0 0 0 0
  0 0 0 0 0
    9   0.00000   0.00000   0.00000
    9 0 0 0 0
  0 0 0 0 0
   10   0.00000   0.00000   0.00000
   10 0 0 0 0
  0 0 0 0 0
   11   0.00000   0.00000   0.00000
   11 0 0 0 0
  0 0 0 0 0
   12   0.00000   0.00000   0.00000
   12 0 0 0 0
  0 0 0 0 0
   13   0.00000   0.00000   0.00000
   13 0 0 0 0
  0 0 0 0 0
   14   0.00000   0.00000   0.00000
   14 0 0 0 0
  0 0 0 0 0
   15   0.00000   0.00000   0.00000
   15 0 0 0 0
  0 0 0 0 0
   16   0.00000   0.00000   0.00000
   16 0 0 0 0
  0 0 0 0 0
   17   0.00000   0.00000   0.00000
   17 0 0 0 0
  0 0 0 0 0
   18   0.00000   0.00000   0.00000
   18 0 0 0 0
  0 0 0 0 0
   19   0.00000   0.00000   0.00000
   19 0 0 0 0
  0 0 0 0 0
   20   0.00000   0.00000   0.00000
   20 0 0 0 0
  0 0 0 0 0
   21   0.00000   0.00000   0.00000
   21 0 0 0 0
  0 0 0 0 0
   22   0.00000   0.00000   0.00000
   22 0 0 0 0
  0 0 0 0 0
   23   0.00000   0.00000   0.00000
   23 0 0 0 0
  0 0 0 0 0
   24   0.00000   0.00000   0.00000
   24 0 0 0 0
  0 0 0 0 0
   25   0.00000   0.00000   0.00000
   25 0 0 0 0
  0 0 0 0 0
   26   0.00000   0.00000   0.00000
   26 0 0 0 0
  0 0 0 0 0
   27   0.00000   1.06066  -1.06066
   27 0 0 0 0
  0 0 0 0 0
   28   0.00000   1.06066   1.06066
   28 0 0 0 0
  0 0 0 0 0
   29   0.00000  -1.06066  -1.06066
   29 0 0 0 0
  0 0 0 0 0
   30   0.00000  -1.06066   1.06066
   30 0 0 0 0
  0 0 0 0 0
   31   0.00000   0.00000   0.00000
   31 0 0 0 0
  0 0 0 0 0
   32   0.00000   0.00000   0.00000
   32 0 0 0 0
  0 0 0 0 0
   33   0.00000   0.00000   0.00000
   33 0 0 0 0
  0 0 0 0 0
   34   0.00000   0.00000   0.00000
   34 0 0 0 0
  0 0 0 0 0
   35   0.00000   0.00000   0.00000
   35 0 0 0 0
  0 0 0 0 0
   36   0.00000   0.00000   0.00000
   36 0 0 0 0
  0 0 0 0 0
   37   0.00000   0.00000   0.00000
   37 0 0 0 0
  0 0 0 0 0
   38   0.00000   0.00000   0.00000
   38 0 0 0 0
  0 0 0 0 0
   39   0.00000   0.00000   0.00000
   39 0 0 0 0
  0 0 0 0 0
   40   0.00000   0.00000   0.00000
   40 0 0 0 0
  0 0 0 0 0
   41   0.00000   0.00000   0.00000
   41 0 0 0 0
  0 0 0 0 0
   42   0.00000   0.00000   0.00000
   42 0 0 0 0
  0 0 0 0 0
   43   0.00000   0.00000   0.00000
   43 0 0 0 0
  0 0 0 0 0
   44   0.00000   0.00000   0.00000
   44 0 0 0 0
  0 0 0 0 0
   45   0.00000   0.00000   0.00000
   45 0 0 0 0
  0 0 0 0 0
   46   0.00000   0.00000   0.00000
   46 0 0 0 0
  0 0 0 0 0
   47   0.00000   0.00000   0.00000
   47 0 0 0 0
  0 0 0 0 0
   48   0.00000   0.00000   0.00000
   48 0 0 0 0
  0 0 0 0 0
   49   0.00000   1.06066  -1.06066
   49 0 0 0 0
  0 0 0 0 0
   50   0.00000   1.06066   1.06066
   50 0 0 0 0
  0 0 0 0 0
   51   0.00000  -1.06066  -1.06066
   51 0 0 0 0
  0 0 0 0 0
   52   0.00000  -1.06066   1.06066
   52 0 0 0 0
  0 0 0 0 0
   53   0.00000   0.00000   0.00000
   53 0 0 0 0
  0 0 0 0 0
   54   0.00000   0.00000   0.00000
   54 0 0 0 0
  0 0 0 0 0
   55   0.00000   0.00000   0.00000
   55 0 0 0 0
  0 0 0 0 0
   56   0.00000   0.00000   0.00000
   56 0 0 0 0
  0 0 0 0 0
   57   0.00000   0.00000   0.00000
   57 0 0 0 0
  0 0 0 0 0
   58   0.00000   0.00000   0.00000
   58 0 0 0 0
  0 0 0 0 0
   59   0.00000   0.00000   0.00000
   59 0 0 0 0
  0 0 0 0 0
   60   0.00000   0.00000   0.00000
   60 0 0 0 0
  0 0 0 0 0
   61   0.00000   0.00000   0.00000
   61 0 0 0 0
  0 0 0 0 0
   62   0.00000   0.00000   0.00000
   62 0 0 0 0
  0 0 0 0 0
   63   0.00000   0.00000   0.00000
   63 0 0 0 0
  0 0 0 0 0
   64   0.00000   0.00000   0.00000
   64 0 0 0 0
  0 0 0 0 0
   65   0.00000   0.00000   0.00000
   65 0 0 0 0
  0 0 0 0 0
   66   0.00000   0.00000   0.00000
   66 0 0 0 0
  0 0 0 0 0
   67   0.00000   0.00000   0.00000
   67 0 0 0 0
  0 0 0 0 0
   68   0.00000   0.00000   0.00000
   68 0 0 0 0
  0 0 0 0 0
   69   0.00000   0.00000   0.00000
   69 0 0 0 0
  0 0 0 0 0
   70   0.00000   0.00000   0.00000
   70 0 0 0 0
  0 0 0 0 0
   71   0.00000   1.06066  -1.06066
   71 0 0 0 0
  0 0 0 0 0
   72   0.00000   1.06066   1.06066
   72 0 0 0 0
  0 0 0 0 0
   73   0.00000  -1.06066  -1.06066
   73 0 0 0 0
  0 0 0 0 0
   74   0.00000  -1.06066   1.06066
   74 0 0 0 0
  0 0 0 0 0
   75   0.00000   0.00000   0.00000
   75 0 0 0 0
  0 0 0 0 0
   76   0.00000   0.00000   0.00000
   76 0 0 0 0
  0 0 0 0 0
   77   0.00000   0.00000   0.00000
   77 0 0 0 0
  0 0 0 0 0
   78   0.00000   0.00000   0.00000
   78 0 0 0 0
  0 0 0 0 0
   79   0.00000   0.00000   0.00000
   79 0 0 0 0
  0 0 0 0 0
   80   0.00000   0.00000   0.00000
   80 0 0 0 0
  0 0 0 0 0
   81   0.00000   0.00000   0.00000
   81 0 0 0 0
  0 0 0 0 0
   82   0.00000   0.00000   0.00000
   82 0 0 0 0
  0 0 0 0 0
   83   0.00000   0.00000   0.00000
   83 0 0 0 0
  0 0 0 0 0
   84   0.00000   0.00000   0.00000
   84 0 0 0 0
  0 0 0 0 0
   85   0.00000   0.00000   0.00000
   85 0 0 0 0
  0 0 0 0 0
   86   0.00000   0.00000   0.00000
   86 0 0 0 0
  0 0 0 0 0
   87   0.00000   0.00000   0.00000
   87 0 0 0 0
  0 0 0 0 0
   88   0.00000   0.00000   0.00000
   88 0 0 0 0
  0 0 0 0 0
0 0 0 0 0
VECTT
    1  0.500 255   0   0 0
    2  0.500 255   0   0 0
    3  0.500 255   0   0 0
    4  0.500 255   0   0 0
    5  0.500 255   0   0 0
    6  0.500 255   0   0 0
    7  0.500 255   0   0 0
    8  0.500 255   0   0 0
    9  0.500 255   0   0 0
   10  0.500 255   0   0 0
   11  0.500 255   0   0 0
   12  0.500 255   0   0 0
   13  0.500 255   0   0 0
   14  0.500 255   0   0 0
   15  0.500 255   0   0 0
   16  0.500 255   0   0 0
   17  0.500 255   0   0 0
   18  0.500 255   0   0 0
   19  0.500 255   0   0 0
   20  0.500 255   0   0 0
   21  0.500 255   0   0 0
   22  0.500 255   0   0 0
   23  0.500 255   0   0 0
   24  0.500 255   0   0 0
   25  0.500 255   0   0 0
   26  0.500 255   0   0 0
   27  0.500 255   0   0 0
   28  0.500 255   0   0 0
   29  0.500 255   0   0 0
   30  0.500 255   0   0 0
   31  0.500 255   0   0 0
   32  0.500 255   0   0 0
   33  0.500 255   0   0 0
   34  0.500 255   0   0 0
   35  0.500 255   0   0 0
   36  0.500 255   0   0 0
   37  0.500 255   0   0 0
   38  0.500 255   0   0 0
   39  0.500 255   0   0 0
   40  0.500 255   0   0 0
   41  0.500 255   0   0 0
   42  0.500 255   0   0 0
   43  0.500 255   0   0 0
   44  0.500 255   0   0 0
   45  0.500 255   0   0 0
   46  0.500 255   0   0 0
   47  0.500 255   0   0 0
   48  0.500 255   0   0 0
   49  0.500 255   0   0 0
   50  0.500 255   0   0 0
   51  0.500 255   0   0 0
   52  0.500 255   0   0 0
   53  0.500 255   0   0 0
   54  0.500 255   0   0 0
   55  0.500 255   0   0 0
   56  0.500 255   0   0 0
   57  0.500 255   0   0 0
   58  0.500 255   0   0 0
   59  0.500 255   0   0 0
   60  0.500 255   0   0 0
   61  0.500 255   0   0 0
   62  0.500 255   0   0 0
   63  0.500 255   0   0 0
   64  0.500 255   0   0 0
   65  0.500 255   0   0 0
   66  0.500 255   0   0 0
   67  0.500 255   0   0 0
   68  0.500 255   0   0 0
   69  0.500 255   0   0 0
   70  0.500 255   0   0 0
   71  0.500 255   0   0 0
   72  0.500 255   0   0 0
   73  0.500 255   0   0 0
   74  0.500 255   0   0 0
   75  0.500 255   0   0 0
   76  0.500 255   0   0 0
   77  0.500 255   0   0 0
   78  0.500 255   0   0 0
   79  0.500 255   0   0 0
   80  0.500 255   0   0 0
   81  0.500 255   0   0 0
   82  0.500 255   0   0 0
   83  0.500 255   0   0 0
   84  0.500 255   0   0 0
   85  0.500 255   0   0 0
   86  0.500 255   0   0 0
   87  0.500 255   0   0 0
   88  0.500 255   0   0 0
0 0 0 0 0
SPLAN
  0   0   0   0
LBLAT
 -1
LBLSP
 -1
DLATM
 -1
DLBND
 -1
DLPLY
 -1
PLN2D
  0   0   0   0
ATOMT
  1          Y  1.8200 103 152 142 103 152 142 204
  2         Ir  1.3600 201 207 115 201 207 115 204
  3          O  0.7400 255   3   0 255   3   0 204
  0 0 0 0 0 0
SCENE
 1.000000  0.000000  0.000000  0.000000
 0.000000  1.000000  0.000000  0.000000
 0.000000  0.000000  1.000000  0.000000
 0.000000  0.000000  0.000000  1.000000
  0.000   0.000
  0.000
  1.000
HBOND 0 2

STYLE
DISPF 37753794
MODEL   0  1  0
SURFS   0  1  1
SECTS  96  1
FORMS   0  1
ATOMS   0  0  1
BONDS   1
POLYS   1
VECTS 1.000000
FORMP
  1  1.0   0   0   0
ATOMP
 24  24   0  50  2.0   0
BONDP
  1  16  0.250  2.000 127 127 127
POLYP
 204 1  1.000 180 180 180
ISURF
  0   0   0   0
TEX3P
  1 0.00000E+000 1.00000E+000
SECTP
  1 0.00000E+000 1.00000E+000 0.00000E+000
HKLPP
  92 0  1.000   0 128 255
UCOLP
   0   1  1.000   0   0   0
COMPS 1
LABEL 1    12  1.000 0
PROJT 0  0.962
BKGRC
 255 255 255
DPTHQ 1 -0.5000  3.5000
LIGHT0 1
 1.000000  0.000000  0.000000  0.000000
 0.000000  1.000000  0.000000  0.000000
 0.000000  0.000000  1.000000  0.000000
 0.000000  0.000000  0.000000  1.000000
 0.000000  0.000000 20.000000  0.000000
 0.000000  0.000000 -1.000000
  26  26  26 255
 179 179 179 255
 255 255 255 255
LIGHT1
 1.000000  0.000000  0.000000  0.000000
 0.000000  1.000000  0.000000  0.000000
 0.000000  0.000000  1.000000  0.000000
 0.000000  0.000000  0.000000  1.000000
 0.000000  0.000000 20.000000  0.000000
 0.000000  0.000000 -1.000000
   0   0   0   0
   0   0   0   0
   0   0   0   0
LIGHT2
 1.000000  0.000000  0.000000  0.000000
 0.000000  1.000000  0.000000  0.000000
 0.000000  0.000000  1.000000  0.000000
 0.000000  0.000000  0.000000  1.000000
 0.000000  0.000000 20.000000  0.000000
 0.000000  0.000000 -1.000000
   0   0   0   0
   0   0   0   0
   0   0   0   0
LIGHT3
 1.000000  0.000000  0.000000  0.000000
 0.000000  1.000000  0.000000  0.000000
 0.000000  0.000000  1.000000  0.000000
 0.000000  0.000000  0.000000  1.000000
 0.000000  0.000000 20.000000  0.000000
 0.000000  0.000000 -1.000000
   0   0   0   0
   0   0   0   0
   0   0   0   0
ATOMM
 204 204 204 255
  25.600
BONDM
 255 255 255 255
 128.000
POLYM
 255 255 255 255
 128.000
SURFM
   0   0   0 255
 128.000
FORMM
 255 255 255 255
 128.000
HKLPM
 255 255 255 255
 128.000
