Sc F  Sc F  Sc F  Sc F  Sc F  Sc F  Sc F  Sc F 
 1.0000000000000000
     8.1391799999999996    0.0000000000000000    0.0000000000000000
     0.0000000000000000    8.1391799999999996    0.0000000000000000
     0.0000000000000000    0.0000000000000000    8.1391799999999996
 Sc  F   Sc  F   Sc  F   Sc  F   Sc  F   Sc  F   Sc  F   Sc  F  
   1   3   1   3   1   3   1   3   1   3   1   3   1   3   1   3
Direct
  0.0000000000000000  0.0000000000000000  0.0000000000000000
  0.0260630719993862  0.2500000000000000  0.0000000000000000
  0.2500000000000000 -0.0260630719993862  0.0000000000000000
  0.0000000000000000  0.0000000000000000  0.2500000000000000
  0.0000000000000000  0.0000000000000000  0.5000000000000000
 -0.0260630719993862  0.2500000000000000  0.5000000000000000
  0.2500000000000000  0.0260630719993862  0.5000000000000000
  0.0000000000000000  0.0000000000000000  0.7500000000000000
  0.0000000000000000  0.5000000000000000  0.0000000000000000
 -0.0260630719993862  0.7500000000000000  0.0000000000000000
  0.2500000000000000  0.5260630719993862  0.0000000000000000
  0.0000000000000000  0.5000000000000000  0.2500000000000000
  0.0000000000000000  0.5000000000000000  0.5000000000000000
  0.0260630719993862  0.7500000000000000  0.5000000000000000
  0.2500000000000000  0.4739369280006138  0.5000000000000000
  0.0000000000000000  0.5000000000000000  0.7500000000000000
  0.5000000000000000  0.0000000000000000  0.0000000000000000
  0.4739369280006138  0.2500000000000000  0.0000000000000000
  0.7500000000000000  0.0260630719993862  0.0000000000000000
  0.5000000000000000  0.0000000000000000  0.2500000000000000
  0.5000000000000000  0.0000000000000000  0.5000000000000000
  0.5260630719993862  0.2500000000000000  0.5000000000000000
  0.7500000000000000 -0.0260630719993862  0.5000000000000000
  0.5000000000000000  0.0000000000000000  0.7500000000000000
  0.5000000000000000  0.5000000000000000  0.0000000000000000
  0.5260630719993862  0.7500000000000000  0.0000000000000000
  0.7500000000000000  0.4739369280006138  0.0000000000000000
  0.5000000000000000  0.5000000000000000  0.2500000000000000
  0.5000000000000000  0.5000000000000000  0.5000000000000000
  0.4739369280006138  0.7500000000000000  0.5000000000000000
  0.7500000000000000  0.5260630719993862  0.5000000000000000
  0.5000000000000000  0.5000000000000000  0.7500000000000000
