#VESTA_FORMAT_VERSION 3.3.0


CRYSTAL

TITLE
La2CuO4 spin basis: X3+(1) X 1m10

GROUP
1 1 P 1
SYMOP
 0.000000  0.000000  0.000000  1  0  0   0  1  0   0  0  1   1
 -1.0 -1.0 -1.0  0 0 0  0 0 0  0 0 0
TRANM 0
 0.000000  0.000000  0.000000  1  0  0   0  1  0   0  0  1
LTRANSL
 -1
 0.000000  0.000000  0.000000  0.000000  0.000000  0.000000
LORIENT
 -1   0   0   0   0
 1.000000  0.000000  0.000000  1.000000  0.000000  0.000000
 0.000000  0.000000  1.000000  0.000000  0.000000  1.000000
LMATRIX
 1.000000  0.000000  0.000000  0.000000
 0.000000  1.000000  0.000000  0.000000
 0.000000  0.000000  1.000000  0.000000
 0.000000  0.000000  0.000000  1.000000
 0.000000  0.000000  0.000000
CELLP
   7.627608   7.627608  13.224902  90.000000  90.000000  90.000000
  0.000000   0.000000   0.000000   0.000000   0.000000   0.000000
STRUC
  1 La        La1  1.0000   0.000000   0.000000   0.360893    1a       1
                            0.000000   0.000000   0.000000  0.00
  2 La        La2  1.0000   0.000000   0.000000   0.639107    1a       1
                            0.000000   0.000000   0.000000  0.00
  3 Cu        Cu1  1.0000   0.000000   0.000000   0.000000    1a       1
                            0.000000   0.000000   0.000000  0.00
  4 O         O1   1.0000   0.000000   0.250000   0.000000    1a       1
                            0.000000   0.000000   0.000000  0.00
  5 O         O2   1.0000   0.250000   0.000000   0.000000    1a       1
                            0.000000   0.000000   0.000000  0.00
  6 O         O3   1.0000   0.000000   0.000000   0.186226    1a       1
                            0.000000   0.000000   0.000000  0.00
  7 O         O4   1.0000   0.000000   0.000000   0.813774    1a       1
                            0.000000   0.000000   0.000000  0.00
  8 La        La3  1.0000   0.500000   0.000000   0.360893    1a       1
                            0.000000   0.000000   0.000000  0.00
  9 La        La4  1.0000   0.500000   0.000000   0.639107    1a       1
                            0.000000   0.000000   0.000000  0.00
  10 Cu        Cu2  1.0000   0.500000   0.000000   0.000000    1a       1
                            0.000000   0.000000   0.000000  0.00
  11 O         O5   1.0000   0.500000   0.250000   0.000000    1a       1
                            0.000000   0.000000   0.000000  0.00
  12 O         O6   1.0000   0.750000   0.000000   0.000000    1a       1
                            0.000000   0.000000   0.000000  0.00
  13 O         O7   1.0000   0.500000   0.000000   0.186226    1a       1
                            0.000000   0.000000   0.000000  0.00
  14 O         O8   1.0000   0.500000   0.000000   0.813774    1a       1
                            0.000000   0.000000   0.000000  0.00
  15 La        La5  1.0000   0.000000   0.500000   0.360893    1a       1
                            0.000000   0.000000   0.000000  0.00
  16 La        La6  1.0000   0.000000   0.500000   0.639107    1a       1
                            0.000000   0.000000   0.000000  0.00
  17 Cu        Cu3  1.0000   0.000000   0.500000   0.000000    1a       1
                            0.000000   0.000000   0.000000  0.00
  18 O         O9   1.0000   0.000000   0.750000   0.000000    1a       1
                            0.000000   0.000000   0.000000  0.00
  19 O         O10  1.0000   0.250000   0.500000   0.000000    1a       1
                            0.000000   0.000000   0.000000  0.00
  20 O         O11  1.0000   1.000000   0.500000   0.186226    1a       1
                            0.000000   0.000000   0.000000  0.00
  21 O         O12  1.0000   0.000000   0.500000   0.813774    1a       1
                            0.000000   0.000000   0.000000  0.00
  22 La        La7  1.0000   0.250000   0.250000   0.860893    1a       1
                            0.000000   0.000000   0.000000  0.00
  23 La        La8  1.0000   0.250000   0.250000   0.139107    1a       1
                            0.000000   0.000000   0.000000  0.00
  24 Cu        Cu4  1.0000   0.250000   0.250000   0.500000    1a       1
                            0.000000   0.000000   0.000000  0.00
  25 O         O13  1.0000   0.250000   0.500000   0.500000    1a       1
                            0.000000   0.000000   0.000000  0.00
  26 O         O14  1.0000   0.500000   0.250000   0.500000    1a       1
                            0.000000   0.000000   0.000000  0.00
  27 O         O15  1.0000   0.250000   0.250000   0.686226    1a       1
                            0.000000   0.000000   0.000000  0.00
  28 O         O16  1.0000   0.250000   0.250000   0.313774    1a       1
                            0.000000   0.000000   0.000000  0.00
  29 La        La9  1.0000   0.500000   0.500000   0.360893    1a       1
                            0.000000   0.000000   0.000000  0.00
  30 La        La10 1.0000   0.500000   0.500000   0.639107    1a       1
                            0.000000   0.000000   0.000000  0.00
  31 Cu        Cu5  1.0000   0.500000   0.500000   0.000000    1a       1
                            0.000000   0.000000   0.000000  0.00
  32 O         O17  1.0000   0.500000   0.750000   0.000000    1a       1
                            0.000000   0.000000   0.000000  0.00
  33 O         O18  1.0000   0.750000   0.500000   0.000000    1a       1
                            0.000000   0.000000   0.000000  0.00
  34 O         O19  1.0000   0.500000   0.500000   0.186226    1a       1
                            0.000000   0.000000   0.000000  0.00
  35 O         O20  1.0000   0.500000   0.500000   0.813774    1a       1
                            0.000000   0.000000   0.000000  0.00
  36 La        La11 1.0000   0.750000   0.250000   0.860893    1a       1
                            0.000000   0.000000   0.000000  0.00
  37 La        La12 1.0000   0.750000   0.250000   0.139107    1a       1
                            0.000000   0.000000   0.000000  0.00
  38 Cu        Cu6  1.0000   0.750000   0.250000   0.500000    1a       1
                            0.000000   0.000000   0.000000  0.00
  39 O         O21  1.0000   0.750000   0.500000   0.500000    1a       1
                            0.000000   0.000000   0.000000  0.00
  40 O         O22  1.0000   0.000000   0.250000   0.500000    1a       1
                            0.000000   0.000000   0.000000  0.00
  41 O         O23  1.0000   0.750000   0.250000   0.686226    1a       1
                            0.000000   0.000000   0.000000  0.00
  42 O         O24  1.0000   0.750000   0.250000   0.313774    1a       1
                            0.000000   0.000000   0.000000  0.00
  43 La        La13 1.0000   0.250000   0.750000   0.860893    1a       1
                            0.000000   0.000000   0.000000  0.00
  44 La        La14 1.0000   0.250000   0.750000   0.139107    1a       1
                            0.000000   0.000000   0.000000  0.00
  45 Cu        Cu7  1.0000   0.250000   0.750000   0.500000    1a       1
                            0.000000   0.000000   0.000000  0.00
  46 O         O25  1.0000   0.250000   0.000000   0.500000    1a       1
                            0.000000   0.000000   0.000000  0.00
  47 O         O26  1.0000   0.500000   0.750000   0.500000    1a       1
                            0.000000   0.000000   0.000000  0.00
  48 O         O27  1.0000   0.250000   0.750000   0.686226    1a       1
                            0.000000   0.000000   0.000000  0.00
  49 O         O28  1.0000   0.250000   0.750000   0.313774    1a       1
                            0.000000   0.000000   0.000000  0.00
  50 La        La15 1.0000   0.750000   0.750000   0.860893    1a       1
                            0.000000   0.000000   0.000000  0.00
  51 La        La16 1.0000   0.750000   0.750000   0.139107    1a       1
                            0.000000   0.000000   0.000000  0.00
  52 Cu        Cu8  1.0000   0.750000   0.750000   0.500000    1a       1
                            0.000000   0.000000   0.000000  0.00
  53 O         O29  1.0000   0.750000   0.000000   0.500000    1a       1
                            0.000000   0.000000   0.000000  0.00
  54 O         O30  1.0000   0.000000   0.750000   0.500000    1a       1
                            0.000000   0.000000   0.000000  0.00
  55 O         O31  1.0000   0.750000   0.750000   0.686226    1a       1
                            0.000000   0.000000   0.000000  0.00
  56 O         O32  1.0000   0.750000   0.750000   0.313774    1a       1
                            0.000000   0.000000   0.000000  0.00
  0 0 0 0 0 0 0
THERI 0
  1        La1  1.000000
  2        La2  1.000000
  3        Cu1  1.000000
  4         O1  1.000000
  5         O2  1.000000
  6         O3  1.000000
  7         O4  1.000000
  8        La3  1.000000
  9        La4  1.000000
  10        Cu2  1.000000
  11         O5  1.000000
  12         O6  1.000000
  13         O7  1.000000
  14         O8  1.000000
  15        La5  1.000000
  16        La6  1.000000
  17        Cu3  1.000000
  18         O9  1.000000
  19        O10  1.000000
  20        O11  1.000000
  21        O12  1.000000
  22        La7  1.000000
  23        La8  1.000000
  24        Cu4  1.000000
  25        O13  1.000000
  26        O14  1.000000
  27        O15  1.000000
  28        O16  1.000000
  29        La9  1.000000
  30       La10  1.000000
  31        Cu5  1.000000
  32        O17  1.000000
  33        O18  1.000000
  34        O19  1.000000
  35        O20  1.000000
  36       La11  1.000000
  37       La12  1.000000
  38        Cu6  1.000000
  39        O21  1.000000
  40        O22  1.000000
  41        O23  1.000000
  42        O24  1.000000
  43       La13  1.000000
  44       La14  1.000000
  45        Cu7  1.000000
  46        O25  1.000000
  47        O26  1.000000
  48        O27  1.000000
  49        O28  1.000000
  50       La15  1.000000
  51       La16  1.000000
  52        Cu8  1.000000
  53        O29  1.000000
  54        O30  1.000000
  55        O31  1.000000
  56        O32  1.000000
  0 0 0
SHAPE
  0       0       0       0   0.000000  0   192   192   192   192
BOUND
       0        1         0        1         0        1
  0   0   0   0  0
SBOND
  0 0 0 0
SITET
  1        La1  1.8800  90 196  73  90 196  73 204  0
  2        La2  1.8800  90 196  73  90 196  73 204  0
  3        Cu1  1.2800  34  71 221  34  71 221 204  0
  4         O1  0.7400 255   3   0 255   3   0 204  0
  5         O2  0.7400 255   3   0 255   3   0 204  0
  6         O3  0.7400 255   3   0 255   3   0 204  0
  7         O4  0.7400 255   3   0 255   3   0 204  0
  8        La3  1.8800  90 196  73  90 196  73 204  0
  9        La4  1.8800  90 196  73  90 196  73 204  0
  10        Cu2  1.2800  34  71 221  34  71 221 204  0
  11         O5  0.7400 255   3   0 255   3   0 204  0
  12         O6  0.7400 255   3   0 255   3   0 204  0
  13         O7  0.7400 255   3   0 255   3   0 204  0
  14         O8  0.7400 255   3   0 255   3   0 204  0
  15        La5  1.8800  90 196  73  90 196  73 204  0
  16        La6  1.8800  90 196  73  90 196  73 204  0
  17        Cu3  1.2800  34  71 221  34  71 221 204  0
  18         O9  0.7400 255   3   0 255   3   0 204  0
  19        O10  0.7400 255   3   0 255   3   0 204  0
  20        O11  0.7400 255   3   0 255   3   0 204  0
  21        O12  0.7400 255   3   0 255   3   0 204  0
  22        La7  1.8800  90 196  73  90 196  73 204  0
  23        La8  1.8800  90 196  73  90 196  73 204  0
  24        Cu4  1.2800  34  71 221  34  71 221 204  0
  25        O13  0.7400 255   3   0 255   3   0 204  0
  26        O14  0.7400 255   3   0 255   3   0 204  0
  27        O15  0.7400 255   3   0 255   3   0 204  0
  28        O16  0.7400 255   3   0 255   3   0 204  0
  29        La9  1.8800  90 196  73  90 196  73 204  0
  30       La10  1.8800  90 196  73  90 196  73 204  0
  31        Cu5  1.2800  34  71 221  34  71 221 204  0
  32        O17  0.7400 255   3   0 255   3   0 204  0
  33        O18  0.7400 255   3   0 255   3   0 204  0
  34        O19  0.7400 255   3   0 255   3   0 204  0
  35        O20  0.7400 255   3   0 255   3   0 204  0
  36       La11  1.8800  90 196  73  90 196  73 204  0
  37       La12  1.8800  90 196  73  90 196  73 204  0
  38        Cu6  1.2800  34  71 221  34  71 221 204  0
  39        O21  0.7400 255   3   0 255   3   0 204  0
  40        O22  0.7400 255   3   0 255   3   0 204  0
  41        O23  0.7400 255   3   0 255   3   0 204  0
  42        O24  0.7400 255   3   0 255   3   0 204  0
  43       La13  1.8800  90 196  73  90 196  73 204  0
  44       La14  1.8800  90 196  73  90 196  73 204  0
  45        Cu7  1.2800  34  71 221  34  71 221 204  0
  46        O25  0.7400 255   3   0 255   3   0 204  0
  47        O26  0.7400 255   3   0 255   3   0 204  0
  48        O27  0.7400 255   3   0 255   3   0 204  0
  49        O28  0.7400 255   3   0 255   3   0 204  0
  50       La15  1.8800  90 196  73  90 196  73 204  0
  51       La16  1.8800  90 196  73  90 196  73 204  0
  52        Cu8  1.2800  34  71 221  34  71 221 204  0
  53        O29  0.7400 255   3   0 255   3   0 204  0
  54        O30  0.7400 255   3   0 255   3   0 204  0
  55        O31  0.7400 255   3   0 255   3   0 204  0
  56        O32  0.7400 255   3   0 255   3   0 204  0
  0 0 0 0 0 0
VECTR
    1   0.00000   0.00000   0.00000
    1 0 0 0 0
  0 0 0 0 0
    2   0.00000   0.00000   0.00000
    2 0 0 0 0
  0 0 0 0 0
    3   1.06066  -1.06066   0.00000
    3 0 0 0 0
  0 0 0 0 0
    4   0.00000   0.00000   0.00000
    4 0 0 0 0
  0 0 0 0 0
    5   0.00000   0.00000   0.00000
    5 0 0 0 0
  0 0 0 0 0
    6   0.00000   0.00000   0.00000
    6 0 0 0 0
  0 0 0 0 0
    7   0.00000   0.00000   0.00000
    7 0 0 0 0
  0 0 0 0 0
    8   0.00000   0.00000   0.00000
    8 0 0 0 0
  0 0 0 0 0
    9   0.00000   0.00000   0.00000
    9 0 0 0 0
  0 0 0 0 0
   10  -1.06066   1.06066   0.00000
   10 0 0 0 0
  0 0 0 0 0
   11   0.00000   0.00000   0.00000
   11 0 0 0 0
  0 0 0 0 0
   12   0.00000   0.00000   0.00000
   12 0 0 0 0
  0 0 0 0 0
   13   0.00000   0.00000   0.00000
   13 0 0 0 0
  0 0 0 0 0
   14   0.00000   0.00000   0.00000
   14 0 0 0 0
  0 0 0 0 0
   15   0.00000   0.00000   0.00000
   15 0 0 0 0
  0 0 0 0 0
   16   0.00000   0.00000   0.00000
   16 0 0 0 0
  0 0 0 0 0
   17  -1.06066   1.06066   0.00000
   17 0 0 0 0
  0 0 0 0 0
   18   0.00000   0.00000   0.00000
   18 0 0 0 0
  0 0 0 0 0
   19   0.00000   0.00000   0.00000
   19 0 0 0 0
  0 0 0 0 0
   20   0.00000   0.00000   0.00000
   20 0 0 0 0
  0 0 0 0 0
   21   0.00000   0.00000   0.00000
   21 0 0 0 0
  0 0 0 0 0
   22   0.00000   0.00000   0.00000
   22 0 0 0 0
  0 0 0 0 0
   23   0.00000   0.00000   0.00000
   23 0 0 0 0
  0 0 0 0 0
   24  -1.06066   1.06066   0.00000
   24 0 0 0 0
  0 0 0 0 0
   25   0.00000   0.00000   0.00000
   25 0 0 0 0
  0 0 0 0 0
   26   0.00000   0.00000   0.00000
   26 0 0 0 0
  0 0 0 0 0
   27   0.00000   0.00000   0.00000
   27 0 0 0 0
  0 0 0 0 0
   28   0.00000   0.00000   0.00000
   28 0 0 0 0
  0 0 0 0 0
   29   0.00000   0.00000   0.00000
   29 0 0 0 0
  0 0 0 0 0
   30   0.00000   0.00000   0.00000
   30 0 0 0 0
  0 0 0 0 0
   31   1.06066  -1.06066   0.00000
   31 0 0 0 0
  0 0 0 0 0
   32   0.00000   0.00000   0.00000
   32 0 0 0 0
  0 0 0 0 0
   33   0.00000   0.00000   0.00000
   33 0 0 0 0
  0 0 0 0 0
   34   0.00000   0.00000   0.00000
   34 0 0 0 0
  0 0 0 0 0
   35   0.00000   0.00000   0.00000
   35 0 0 0 0
  0 0 0 0 0
   36   0.00000   0.00000   0.00000
   36 0 0 0 0
  0 0 0 0 0
   37   0.00000   0.00000   0.00000
   37 0 0 0 0
  0 0 0 0 0
   38   1.06066  -1.06066   0.00000
   38 0 0 0 0
  0 0 0 0 0
   39   0.00000   0.00000   0.00000
   39 0 0 0 0
  0 0 0 0 0
   40   0.00000   0.00000   0.00000
   40 0 0 0 0
  0 0 0 0 0
   41   0.00000   0.00000   0.00000
   41 0 0 0 0
  0 0 0 0 0
   42   0.00000   0.00000   0.00000
   42 0 0 0 0
  0 0 0 0 0
   43   0.00000   0.00000   0.00000
   43 0 0 0 0
  0 0 0 0 0
   44   0.00000   0.00000   0.00000
   44 0 0 0 0
  0 0 0 0 0
   45   1.06066  -1.06066   0.00000
   45 0 0 0 0
  0 0 0 0 0
   46   0.00000   0.00000   0.00000
   46 0 0 0 0
  0 0 0 0 0
   47   0.00000   0.00000   0.00000
   47 0 0 0 0
  0 0 0 0 0
   48   0.00000   0.00000   0.00000
   48 0 0 0 0
  0 0 0 0 0
   49   0.00000   0.00000   0.00000
   49 0 0 0 0
  0 0 0 0 0
   50   0.00000   0.00000   0.00000
   50 0 0 0 0
  0 0 0 0 0
   51   0.00000   0.00000   0.00000
   51 0 0 0 0
  0 0 0 0 0
   52  -1.06066   1.06066   0.00000
   52 0 0 0 0
  0 0 0 0 0
   53   0.00000   0.00000   0.00000
   53 0 0 0 0
  0 0 0 0 0
   54   0.00000   0.00000   0.00000
   54 0 0 0 0
  0 0 0 0 0
   55   0.00000   0.00000   0.00000
   55 0 0 0 0
  0 0 0 0 0
   56   0.00000   0.00000   0.00000
   56 0 0 0 0
  0 0 0 0 0
0 0 0 0 0
VECTT
    1  0.500 255   0   0 0
    2  0.500 255   0   0 0
    3  0.500 255   0   0 0
    4  0.500 255   0   0 0
    5  0.500 255   0   0 0
    6  0.500 255   0   0 0
    7  0.500 255   0   0 0
    8  0.500 255   0   0 0
    9  0.500 255   0   0 0
   10  0.500 255   0   0 0
   11  0.500 255   0   0 0
   12  0.500 255   0   0 0
   13  0.500 255   0   0 0
   14  0.500 255   0   0 0
   15  0.500 255   0   0 0
   16  0.500 255   0   0 0
   17  0.500 255   0   0 0
   18  0.500 255   0   0 0
   19  0.500 255   0   0 0
   20  0.500 255   0   0 0
   21  0.500 255   0   0 0
   22  0.500 255   0   0 0
   23  0.500 255   0   0 0
   24  0.500 255   0   0 0
   25  0.500 255   0   0 0
   26  0.500 255   0   0 0
   27  0.500 255   0   0 0
   28  0.500 255   0   0 0
   29  0.500 255   0   0 0
   30  0.500 255   0   0 0
   31  0.500 255   0   0 0
   32  0.500 255   0   0 0
   33  0.500 255   0   0 0
   34  0.500 255   0   0 0
   35  0.500 255   0   0 0
   36  0.500 255   0   0 0
   37  0.500 255   0   0 0
   38  0.500 255   0   0 0
   39  0.500 255   0   0 0
   40  0.500 255   0   0 0
   41  0.500 255   0   0 0
   42  0.500 255   0   0 0
   43  0.500 255   0   0 0
   44  0.500 255   0   0 0
   45  0.500 255   0   0 0
   46  0.500 255   0   0 0
   47  0.500 255   0   0 0
   48  0.500 255   0   0 0
   49  0.500 255   0   0 0
   50  0.500 255   0   0 0
   51  0.500 255   0   0 0
   52  0.500 255   0   0 0
   53  0.500 255   0   0 0
   54  0.500 255   0   0 0
   55  0.500 255   0   0 0
   56  0.500 255   0   0 0
0 0 0 0 0
SPLAN
  0   0   0   0
LBLAT
 -1
LBLSP
 -1
DLATM
 -1
DLBND
 -1
DLPLY
 -1
PLN2D
  0   0   0   0
ATOMT
  1         La  1.8800  90 196  73  90 196  73 204
  2         Cu  1.2800  34  71 221  34  71 221 204
  3          O  0.7400 255   3   0 255   3   0 204
  0 0 0 0 0 0
SCENE
 1.000000  0.000000  0.000000  0.000000
 0.000000  1.000000  0.000000  0.000000
 0.000000  0.000000  1.000000  0.000000
 0.000000  0.000000  0.000000  1.000000
  0.000   0.000
  0.000
  1.000
HBOND 0 2

STYLE
DISPF 37753794
MODEL   0  1  0
SURFS   0  1  1
SECTS  96  1
FORMS   0  1
ATOMS   0  0  1
BONDS   1
POLYS   1
VECTS 1.000000
FORMP
  1  1.0   0   0   0
ATOMP
 24  24   0  50  2.0   0
BONDP
  1  16  0.250  2.000 127 127 127
POLYP
 204 1  1.000 180 180 180
ISURF
  0   0   0   0
TEX3P
  1 0.00000E+000 1.00000E+000
SECTP
  1 0.00000E+000 1.00000E+000 0.00000E+000
HKLPP
  92 0  1.000   0 128 255
UCOLP
   0   1  1.000   0   0   0
COMPS 1
LABEL 1    12  1.000 0
PROJT 0  0.962
BKGRC
 255 255 255
DPTHQ 1 -0.5000  3.5000
LIGHT0 1
 1.000000  0.000000  0.000000  0.000000
 0.000000  1.000000  0.000000  0.000000
 0.000000  0.000000  1.000000  0.000000
 0.000000  0.000000  0.000000  1.000000
 0.000000  0.000000 20.000000  0.000000
 0.000000  0.000000 -1.000000
  26  26  26 255
 179 179 179 255
 255 255 255 255
LIGHT1
 1.000000  0.000000  0.000000  0.000000
 0.000000  1.000000  0.000000  0.000000
 0.000000  0.000000  1.000000  0.000000
 0.000000  0.000000  0.000000  1.000000
 0.000000  0.000000 20.000000  0.000000
 0.000000  0.000000 -1.000000
   0   0   0   0
   0   0   0   0
   0   0   0   0
LIGHT2
 1.000000  0.000000  0.000000  0.000000
 0.000000  1.000000  0.000000  0.000000
 0.000000  0.000000  1.000000  0.000000
 0.000000  0.000000  0.000000  1.000000
 0.000000  0.000000 20.000000  0.000000
 0.000000  0.000000 -1.000000
   0   0   0   0
   0   0   0   0
   0   0   0   0
LIGHT3
 1.000000  0.000000  0.000000  0.000000
 0.000000  1.000000  0.000000  0.000000
 0.000000  0.000000  1.000000  0.000000
 0.000000  0.000000  0.000000  1.000000
 0.000000  0.000000 20.000000  0.000000
 0.000000  0.000000 -1.000000
   0   0   0   0
   0   0   0   0
   0   0   0   0
ATOMM
 204 204 204 255
  25.600
BONDM
 255 255 255 255
 128.000
POLYM
 255 255 255 255
 128.000
SURFM
   0   0   0 255
 128.000
FORMM
 255 255 255 255
 128.000
HKLPM
 255 255 255 255
 128.000
