generated by phonopy
   1.0
     3.6438110000000017    0.0000000000000000    0.0000000000000000
     0.0000000000000000    3.6438110000000017    0.0000000000000000
     0.0000000000000000    0.0000000000000000    5.3145600000000011
Zr O
   2    4
Direct
  0.0000000000000000  0.0000000000000000  0.0000000000000000
  0.4999999999999999  0.4999999999999999  0.4999999999999999
  0.4999999999999999  0.0000000000000000  0.1939549999999998
  0.0000000000000000  0.4999999999999999  0.3060450000000001
  0.0000000000000000  0.4999999999999999  0.8060449999999999
  0.4999999999999999  0.0000000000000000  0.6939549999999998
