Ca4 Ti4 O12
1.0
5.507429 0.000000 0.000000
0.000000 7.694012 0.000000
0.000000 0.000000 5.407760
Ca Ti O
4 4 12
direct
0.042875 0.750000 0.990906 Ca
0.957125 0.250000 0.009094 Ca
0.457125 0.250000 0.490906 Ca
0.542875 0.750000 0.509094 Ca
0.000000 0.000000 0.500000 Ti
0.500000 0.000000 0.000000 Ti
0.500000 0.500000 0.000000 Ti
0.000000 0.500000 0.500000 Ti
0.209962 0.041029 0.209377 O
0.790038 0.958971 0.790623 O
0.290038 0.958971 0.709377 O
0.709962 0.041029 0.290623 O
0.709962 0.458971 0.290623 O
0.290038 0.541029 0.709377 O
0.790038 0.541029 0.790623 O
0.209962 0.458971 0.209377 O
0.019806 0.250000 0.578086 O
0.980194 0.750000 0.421914 O
0.480194 0.750000 0.078086 O
0.519806 0.250000 0.921914 O
