generated by phonopy
   1.0
    10.1564899999999998   -2.8031359999999999    0.0000000000000000
    10.1564899999999998    2.8031359999999999    0.0000000000000000
     0.0000000000000000    0.0000000000000000    5.4570880000000006
La Ni O
   6    4   14
Direct
  0.0559870000000000  0.5834290000000001  0.7500000000000000
  0.9440130000000000  0.4165709999999999  0.2500000000000000
  0.4165709999999998  0.9440130000000000  0.7500000000000000
  0.5834290000000002  0.0559870000000000  0.2500000000000000
  0.2493739999999999  0.7506260000000001  0.7500000000000000
  0.7506260000000001  0.2493739999999999  0.2500000000000000
  0.8444920000000000  0.3504080000000001  0.7500000000000000
  0.1555080000000000  0.6495919999999999  0.2500000000000000
  0.6495919999999999  0.1555080000000000  0.7500000000000000
  0.3504080000000001  0.8444920000000000  0.2500000000000000
  0.0853820000000001  0.0853820000000001  0.0000000000000000
  0.9146179999999999  0.9146179999999999  0.5000000000000000
  0.9146179999999999  0.9146179999999999  0.0000000000000000
  0.0853820000000001  0.0853820000000001  0.5000000000000000
  0.6117300000000001  0.6117300000000001  0.5000000000000000
  0.3882699999999999  0.3882699999999999  0.0000000000000000
  0.3882699999999999  0.3882699999999999  0.5000000000000000
  0.6117300000000001  0.6117300000000001  0.0000000000000000
  0.0126539999999999  0.3970220000000001  0.7500000000000000
  0.9873460000000001  0.6029779999999999  0.2500000000000000
  0.3263849999999998  0.6736150000000002  0.2500000000000000
  0.6736150000000002  0.3263849999999998  0.7500000000000000
  0.3970220000000002  0.0126539999999999  0.2500000000000000
  0.6029779999999998  0.9873460000000001  0.7500000000000000
