La12 Ni8 O28
1.0
5.606272 0.000000 0.000000
0.000000 20.312980 0.000000
0.000000 0.000000 5.457088
La Ni O
12 8 28
direct
0.236279 0.180292 0.250000 La
0.263721 0.319708 0.750000 La
0.736279 0.319708 0.250000 La
0.763721 0.180292 0.750000 La
0.249374 0.000000 0.250000 La
0.750626 0.000000 0.750000 La
0.736279 0.680292 0.250000 La
0.763721 0.819708 0.750000 La
0.236279 0.819708 0.250000 La
0.263721 0.680292 0.750000 La
0.749374 0.500000 0.250000 La
0.250626 0.500000 0.750000 La
0.247042 0.402550 0.250000 Ni
0.252958 0.097450 0.750000 Ni
0.747042 0.097450 0.250000 Ni
0.752958 0.402550 0.750000 Ni
0.747042 0.902550 0.250000 Ni
0.752958 0.597450 0.750000 Ni
0.247042 0.597450 0.250000 Ni
0.252958 0.902550 0.750000 Ni
0.500000 0.414618 0.000000 O
0.000000 0.085382 0.500000 O
0.000000 0.085382 0.000000 O
0.500000 0.414618 0.500000 O
0.000000 0.388270 0.500000 O
0.500000 0.111730 0.000000 O
0.500000 0.111730 0.500000 O
0.000000 0.388270 0.000000 O
0.307816 0.295162 0.250000 O
0.192185 0.204839 0.750000 O
0.326385 0.000000 0.750000 O
0.673615 0.000000 0.250000 O
0.692184 0.295162 0.750000 O
0.807816 0.204839 0.250000 O
0.000000 0.914618 0.000000 O
0.500000 0.585382 0.500000 O
0.500000 0.585382 0.000000 O
0.000000 0.914618 0.500000 O
0.500000 0.888270 0.500000 O
0.000000 0.611730 0.000000 O
0.000000 0.611730 0.500000 O
0.500000 0.888270 0.000000 O
0.807816 0.795161 0.250000 O
0.692184 0.704839 0.750000 O
0.826385 0.500000 0.750000 O
0.173615 0.500000 0.250000 O
0.192185 0.795161 0.750000 O
0.307816 0.704839 0.250000 O
