generated by phonopy
   1.00000000000000
     3.7931035883863835    0.0000000000000000    0.0000000000000000
     0.0000000000000000    3.7931035883863835    0.0000000000000000
     0.0000000000000000    0.0000000000000000   20.0704257159989758
   La   Ni   O
     6     4    14
Direct
  0.5000000000000000  0.5000000000000000  0.0000000000000000
  0.5000000000000000  0.5000000000000000  0.1787492969306683
  0.0000000000000000  0.0000000000000000  0.3212507030693317
  0.0000000000000000  0.0000000000000000  0.5000000000000000
  0.0000000000000000  0.0000000000000000  0.6787492969306683
  0.5000000000000000  0.5000000000000000  0.8212507030693317
  0.0000000000000000  0.0000000000000000  0.0975275243985152
  0.5000000000000000  0.5000000000000000  0.4024724756014848
  0.5000000000000000  0.5000000000000000  0.5975275243985152
  0.0000000000000000  0.0000000000000000  0.9024724756014848
  0.0000000000000000  0.5000000000000000  0.4031663352030037
  0.5000000000000000  0.0000000000000000  0.0968336647969963
  0.5000000000000000  0.0000000000000000  0.4031663352030037
  0.0000000000000000  0.5000000000000000  0.0968336647969963
  0.5000000000000000  0.5000000000000000  0.2966963190937548
  0.0000000000000000  0.0000000000000000  0.2033036809062452
  0.0000000000000000  0.0000000000000000  0.0000000000000000
  0.5000000000000000  0.0000000000000000  0.9031663352030037
  0.0000000000000000  0.5000000000000000  0.5968336647969963
  0.0000000000000000  0.5000000000000000  0.9031663352030037
  0.5000000000000000  0.0000000000000000  0.5968336647969963
  0.0000000000000000  0.0000000000000000  0.7966963190937548
  0.5000000000000000  0.5000000000000000  0.7033036809062452
  0.5000000000000000  0.5000000000000000  0.5000000000000000
