#VESTA_FORMAT_VERSION 3.3.0


CRYSTAL

TITLE
La3Ni2O7 spin basis: GM1-(1) quadrupole z

GROUP
1 1 P 1
SYMOP
 0.000000  0.000000  0.000000  1  0  0   0  1  0   0  0  1   1
 -1.0 -1.0 -1.0  0 0 0  0 0 0  0 0 0
TRANM 0
 0.000000  0.000000  0.000000  1  0  0   0  1  0   0  0  1
LTRANSL
 -1
 0.000000  0.000000  0.000000  0.000000  0.000000  0.000000
LORIENT
 -1   0   0   0   0
 1.000000  0.000000  0.000000  1.000000  0.000000  0.000000
 0.000000  0.000000  1.000000  0.000000  0.000000  1.000000
LMATRIX
 1.000000  0.000000  0.000000  0.000000
 0.000000  1.000000  0.000000  0.000000
 0.000000  0.000000  1.000000  0.000000
 0.000000  0.000000  0.000000  1.000000
 0.000000  0.000000  0.000000
CELLP
   3.793104   3.793104  20.070426  90.000000  90.000000  90.000000
  0.000000   0.000000   0.000000   0.000000   0.000000   0.000000
STRUC
  1 La        La1  1.0000   0.000000   0.000000   0.500000    1a       1
                            0.000000   0.000000   0.000000  0.00
  2 La        La2  1.0000   0.000000   0.000000   0.678749    1a       1
                            0.000000   0.000000   0.000000  0.00
  3 La        La3  1.0000   0.000000   0.000000   0.321251    1a       1
                            0.000000   0.000000   0.000000  0.00
  4 Ni        Ni1  1.0000   0.000000   0.000000   0.097528    1a       1
                            0.000000   0.000000   0.000000  0.00
  5 Ni        Ni2  1.0000   0.000000   0.000000   0.902472    1a       1
                            0.000000   0.000000   0.000000  0.00
  6 O         O1   1.0000   0.000000   0.500000   0.403166    1a       1
                            0.000000   0.000000   0.000000  0.00
  7 O         O2   1.0000   0.500000   0.000000   0.096834    1a       1
                            0.000000   0.000000   0.000000  0.00
  8 O         O3   1.0000   0.500000   0.000000   0.403166    1a       1
                            0.000000   0.000000   0.000000  0.00
  9 O         O4   1.0000   0.000000   0.500000   0.096834    1a       1
                            0.000000   0.000000   0.000000  0.00
  10 O         O5   1.0000   0.000000   0.000000   0.796696    1a       1
                            0.000000   0.000000   0.000000  0.00
  11 O         O6   1.0000   0.000000   0.000000   0.203304    1a       1
                            0.000000   0.000000   0.000000  0.00
  12 O         O7   1.0000   0.000000   0.000000   0.000000    1a       1
                            0.000000   0.000000   0.000000  0.00
  13 La        La4  1.0000   0.500000   0.500000   0.000000    1a       1
                            0.000000   0.000000   0.000000  0.00
  14 La        La5  1.0000   0.500000   0.500000   0.178749    1a       1
                            0.000000   0.000000   0.000000  0.00
  15 La        La6  1.0000   0.500000   0.500000   0.821251    1a       1
                            0.000000   0.000000   0.000000  0.00
  16 Ni        Ni3  1.0000   0.500000   0.500000   0.597528    1a       1
                            0.000000   0.000000   0.000000  0.00
  17 Ni        Ni4  1.0000   0.500000   0.500000   0.402472    1a       1
                            0.000000   0.000000   0.000000  0.00
  18 O         O8   1.0000   0.500000   0.000000   0.903166    1a       1
                            0.000000   0.000000   0.000000  0.00
  19 O         O9   1.0000   0.000000   0.500000   0.596834    1a       1
                            0.000000   0.000000   0.000000  0.00
  20 O         O10  1.0000   0.000000   0.500000   0.903166    1a       1
                            0.000000   0.000000   0.000000  0.00
  21 O         O11  1.0000   0.500000   0.000000   0.596834    1a       1
                            0.000000   0.000000   0.000000  0.00
  22 O         O12  1.0000   0.500000   0.500000   0.296696    1a       1
                            0.000000   0.000000   0.000000  0.00
  23 O         O13  1.0000   0.500000   0.500000   0.703304    1a       1
                            0.000000   0.000000   0.000000  0.00
  24 O         O14  1.0000   0.500000   0.500000   0.500000    1a       1
                            0.000000   0.000000   0.000000  0.00
  0 0 0 0 0 0 0
THERI 0
  1        La1  1.000000
  2        La2  1.000000
  3        La3  1.000000
  4        Ni1  1.000000
  5        Ni2  1.000000
  6         O1  1.000000
  7         O2  1.000000
  8         O3  1.000000
  9         O4  1.000000
  10         O5  1.000000
  11         O6  1.000000
  12         O7  1.000000
  13        La4  1.000000
  14        La5  1.000000
  15        La6  1.000000
  16        Ni3  1.000000
  17        Ni4  1.000000
  18         O8  1.000000
  19         O9  1.000000
  20        O10  1.000000
  21        O11  1.000000
  22        O12  1.000000
  23        O13  1.000000
  24        O14  1.000000
  0 0 0
SHAPE
  0       0       0       0   0.000000  0   192   192   192   192
BOUND
       0        1         0        1         0        1
  0   0   0   0  0
SBOND
  0 0 0 0
SITET
  1        La1  1.8800  90 196  73  90 196  73 204  0
  2        La2  1.8800  90 196  73  90 196  73 204  0
  3        La3  1.8800  90 196  73  90 196  73 204  0
  4        Ni1  1.2500 184 188 190 184 188 190 204  0
  5        Ni2  1.2500 184 188 190 184 188 190 204  0
  6         O1  0.7400 255   3   0 255   3   0 204  0
  7         O2  0.7400 255   3   0 255   3   0 204  0
  8         O3  0.7400 255   3   0 255   3   0 204  0
  9         O4  0.7400 255   3   0 255   3   0 204  0
  10         O5  0.7400 255   3   0 255   3   0 204  0
  11         O6  0.7400 255   3   0 255   3   0 204  0
  12         O7  0.7400 255   3   0 255   3   0 204  0
  13        La4  1.8800  90 196  73  90 196  73 204  0
  14        La5  1.8800  90 196  73  90 196  73 204  0
  15        La6  1.8800  90 196  73  90 196  73 204  0
  16        Ni3  1.2500 184 188 190 184 188 190 204  0
  17        Ni4  1.2500 184 188 190 184 188 190 204  0
  18         O8  0.7400 255   3   0 255   3   0 204  0
  19         O9  0.7400 255   3   0 255   3   0 204  0
  20        O10  0.7400 255   3   0 255   3   0 204  0
  21        O11  0.7400 255   3   0 255   3   0 204  0
  22        O12  0.7400 255   3   0 255   3   0 204  0
  23        O13  0.7400 255   3   0 255   3   0 204  0
  24        O14  0.7400 255   3   0 255   3   0 204  0
  0 0 0 0 0 0
VECTR
    1   0.00000   0.00000   0.00000
    1 0 0 0 0
  0 0 0 0 0
    2   0.00000   0.00000   0.00000
    2 0 0 0 0
  0 0 0 0 0
    3   0.00000   0.00000   0.00000
    3 0 0 0 0
  0 0 0 0 0
    4   0.00000   0.00000   1.50000
    4 0 0 0 0
  0 0 0 0 0
    5   0.00000   0.00000  -1.50000
    5 0 0 0 0
  0 0 0 0 0
    6   0.00000   0.00000   0.00000
    6 0 0 0 0
  0 0 0 0 0
    7   0.00000   0.00000   0.00000
    7 0 0 0 0
  0 0 0 0 0
    8   0.00000   0.00000   0.00000
    8 0 0 0 0
  0 0 0 0 0
    9   0.00000   0.00000   0.00000
    9 0 0 0 0
  0 0 0 0 0
   10   0.00000   0.00000   0.00000
   10 0 0 0 0
  0 0 0 0 0
   11   0.00000   0.00000   0.00000
   11 0 0 0 0
  0 0 0 0 0
   12   0.00000   0.00000   0.00000
   12 0 0 0 0
  0 0 0 0 0
   13   0.00000   0.00000   0.00000
   13 0 0 0 0
  0 0 0 0 0
   14   0.00000   0.00000   0.00000
   14 0 0 0 0
  0 0 0 0 0
   15   0.00000   0.00000   0.00000
   15 0 0 0 0
  0 0 0 0 0
   16   0.00000   0.00000   1.50000
   16 0 0 0 0
  0 0 0 0 0
   17   0.00000   0.00000  -1.50000
   17 0 0 0 0
  0 0 0 0 0
   18   0.00000   0.00000   0.00000
   18 0 0 0 0
  0 0 0 0 0
   19   0.00000   0.00000   0.00000
   19 0 0 0 0
  0 0 0 0 0
   20   0.00000   0.00000   0.00000
   20 0 0 0 0
  0 0 0 0 0
   21   0.00000   0.00000   0.00000
   21 0 0 0 0
  0 0 0 0 0
   22   0.00000   0.00000   0.00000
   22 0 0 0 0
  0 0 0 0 0
   23   0.00000   0.00000   0.00000
   23 0 0 0 0
  0 0 0 0 0
   24   0.00000   0.00000   0.00000
   24 0 0 0 0
  0 0 0 0 0
0 0 0 0 0
VECTT
    1  0.500 255   0   0 0
    2  0.500 255   0   0 0
    3  0.500 255   0   0 0
    4  0.500 255   0   0 0
    5  0.500 255   0   0 0
    6  0.500 255   0   0 0
    7  0.500 255   0   0 0
    8  0.500 255   0   0 0
    9  0.500 255   0   0 0
   10  0.500 255   0   0 0
   11  0.500 255   0   0 0
   12  0.500 255   0   0 0
   13  0.500 255   0   0 0
   14  0.500 255   0   0 0
   15  0.500 255   0   0 0
   16  0.500 255   0   0 0
   17  0.500 255   0   0 0
   18  0.500 255   0   0 0
   19  0.500 255   0   0 0
   20  0.500 255   0   0 0
   21  0.500 255   0   0 0
   22  0.500 255   0   0 0
   23  0.500 255   0   0 0
   24  0.500 255   0   0 0
0 0 0 0 0
SPLAN
  0   0   0   0
LBLAT
 -1
LBLSP
 -1
DLATM
 -1
DLBND
 -1
DLPLY
 -1
PLN2D
  0   0   0   0
ATOMT
  1         La  1.8800  90 196  73  90 196  73 204
  2         Ni  1.2500 184 188 190 184 188 190 204
  3          O  0.7400 255   3   0 255   3   0 204
  0 0 0 0 0 0
SCENE
 1.000000  0.000000  0.000000  0.000000
 0.000000  1.000000  0.000000  0.000000
 0.000000  0.000000  1.000000  0.000000
 0.000000  0.000000  0.000000  1.000000
  0.000   0.000
  0.000
  1.000
HBOND 0 2

STYLE
DISPF 37753794
MODEL   0  1  0
SURFS   0  1  1
SECTS  96  1
FORMS   0  1
ATOMS   0  0  1
BONDS   1
POLYS   1
VECTS 1.000000
FORMP
  1  1.0   0   0   0
ATOMP
 24  24   0  50  2.0   0
BONDP
  1  16  0.250  2.000 127 127 127
POLYP
 204 1  1.000 180 180 180
ISURF
  0   0   0   0
TEX3P
  1 0.00000E+000 1.00000E+000
SECTP
  1 0.00000E+000 1.00000E+000 0.00000E+000
HKLPP
  92 0  1.000   0 128 255
UCOLP
   0   1  1.000   0   0   0
COMPS 1
LABEL 1    12  1.000 0
PROJT 0  0.962
BKGRC
 255 255 255
DPTHQ 1 -0.5000  3.5000
LIGHT0 1
 1.000000  0.000000  0.000000  0.000000
 0.000000  1.000000  0.000000  0.000000
 0.000000  0.000000  1.000000  0.000000
 0.000000  0.000000  0.000000  1.000000
 0.000000  0.000000 20.000000  0.000000
 0.000000  0.000000 -1.000000
  26  26  26 255
 179 179 179 255
 255 255 255 255
LIGHT1
 1.000000  0.000000  0.000000  0.000000
 0.000000  1.000000  0.000000  0.000000
 0.000000  0.000000  1.000000  0.000000
 0.000000  0.000000  0.000000  1.000000
 0.000000  0.000000 20.000000  0.000000
 0.000000  0.000000 -1.000000
   0   0   0   0
   0   0   0   0
   0   0   0   0
LIGHT2
 1.000000  0.000000  0.000000  0.000000
 0.000000  1.000000  0.000000  0.000000
 0.000000  0.000000  1.000000  0.000000
 0.000000  0.000000  0.000000  1.000000
 0.000000  0.000000 20.000000  0.000000
 0.000000  0.000000 -1.000000
   0   0   0   0
   0   0   0   0
   0   0   0   0
LIGHT3
 1.000000  0.000000  0.000000  0.000000
 0.000000  1.000000  0.000000  0.000000
 0.000000  0.000000  1.000000  0.000000
 0.000000  0.000000  0.000000  1.000000
 0.000000  0.000000 20.000000  0.000000
 0.000000  0.000000 -1.000000
   0   0   0   0
   0   0   0   0
   0   0   0   0
ATOMM
 204 204 204 255
  25.600
BONDM
 255 255 255 255
 128.000
POLYM
 255 255 255 255
 128.000
SURFM
   0   0   0 255
 128.000
FORMM
 255 255 255 255
 128.000
HKLPM
 255 255 255 255
 128.000
