generated by phonopy
   1.0
     3.8138040000000011    0.0000000000000000    0.0000000000000000
     0.0000000000000000    3.8138040000000011    0.0000000000000000
     0.0000000000000000    0.0000000000000000   13.2249020000000037
La Cu O
   4    2    8
Direct
  0.0000000000000000  0.0000000000000000  0.3608930000000000
  0.5000000000000000  0.5000000000000000  0.1391070000000000
  0.5000000000000000  0.5000000000000000  0.8608929999999999
  0.0000000000000000  0.0000000000000000  0.6391070000000001
  0.0000000000000000  0.0000000000000000  0.0000000000000000
  0.5000000000000000  0.5000000000000000  0.5000000000000000
  0.0000000000000000  0.5000000000000000  0.0000000000000000
  0.5000000000000000  0.0000000000000000  0.0000000000000000
  0.0000000000000000  0.0000000000000000  0.1862259999999999
  0.5000000000000000  0.5000000000000000  0.3137740000000001
  0.5000000000000000  0.0000000000000000  0.5000000000000000
  0.0000000000000000  0.5000000000000000  0.5000000000000000
  0.5000000000000000  0.5000000000000000  0.6862260000000000
  0.0000000000000000  0.0000000000000000  0.8137740000000000
