generated by phonopy
   1.0
     3.9451299999999994    0.0000000000000000    0.0000000000000000
     0.0000000000000000    3.9451299999999994    0.0000000000000000
     0.0000000000000000    0.0000000000000000    3.9451299999999994
Sr Ti O
   1    1    3
Direct
  0.0000000000000000  0.0000000000000000  0.0000000000000000
  0.5000000000000001  0.5000000000000001  0.5000000000000001
  0.5000000000000001  0.0000000000000000  0.5000000000000001
  0.5000000000000001  0.5000000000000001  0.0000000000000000
  0.0000000000000000  0.5000000000000001  0.5000000000000001
