Sc F 
 1.0000000000000000
     8.1391799999999996    0.0000000000000000    0.0000000000000000
     0.0000000000000000    8.1391799999999996    0.0000000000000000
     0.0000000000000000    0.0000000000000000    8.1391799999999996
 Sc  F  
   8  24
Direct
  0.0000000000000000  0.0000000000000000  0.0000000000000000
  0.0000000000000000  0.0000000000000000  0.5000000000000000
  0.0000000000000000  0.5000000000000000  0.0000000000000000
  0.0000000000000000  0.5000000000000000  0.5000000000000000
  0.5000000000000000  0.0000000000000000  0.0000000000000000
  0.5000000000000000  0.0000000000000000  0.5000000000000000
  0.5000000000000000  0.5000000000000000  0.0000000000000000
  0.5000000000000000  0.5000000000000000  0.5000000000000000
  0.0259764684649931  0.2500000000000000  0.0251911717868364
  0.2500000000000000 -0.0259764684649931  0.0269903522805629
 -0.0269903522805629 -0.0251911717868364  0.2500000000000000
 -0.0259764684649931  0.2500000000000000  0.4748088282131636
  0.2500000000000000  0.0259764684649931  0.4730096477194372
  0.0269903522805629  0.0251911717868364  0.7500000000000000
 -0.0259764684649931  0.7500000000000000 -0.0251911717868364
  0.2500000000000000  0.5259764684649931 -0.0269903522805629
  0.0269903522805629  0.5251911717868364  0.2500000000000000
  0.0259764684649931  0.7500000000000000  0.5251911717868364
  0.2500000000000000  0.4740235315350069  0.5269903522805629
 -0.0269903522805629  0.4748088282131636  0.7500000000000000
  0.4740235315350069  0.2500000000000000 -0.0251911717868364
  0.7500000000000000  0.0259764684649931 -0.0269903522805629
  0.5269903522805629  0.0251911717868364  0.2500000000000000
  0.5259764684649931  0.2500000000000000  0.5251911717868364
  0.7500000000000000 -0.0259764684649931  0.5269903522805629
  0.4730096477194372 -0.0251911717868364  0.7500000000000000
  0.5259764684649931  0.7500000000000000  0.0251911717868364
  0.7500000000000000  0.4740235315350069  0.0269903522805629
  0.4730096477194372  0.4748088282131636  0.2500000000000000
  0.4740235315350069  0.7500000000000000  0.4748088282131636
  0.7500000000000000  0.5259764684649931  0.4730096477194372
  0.5269903522805629  0.5251911717868364  0.7500000000000000
