#VESTA_FORMAT_VERSION 3.3.0


CRYSTAL

TITLE
Y2Ir2O7 spin basis: GM4+(3) dipole z

GROUP
1 1 P 1
SYMOP
 0.000000  0.000000  0.000000  1  0  0   0  1  0   0  0  1   1
 -1.0 -1.0 -1.0  0 0 0  0 0 0  0 0 0
TRANM 0
 0.000000  0.000000  0.000000  1  0  0   0  1  0   0  0  1
LTRANSL
 -1
 0.000000  0.000000  0.000000  0.000000  0.000000  0.000000
LORIENT
 -1   0   0   0   0
 1.000000  0.000000  0.000000  1.000000  0.000000  0.000000
 0.000000  0.000000  1.000000  0.000000  0.000000  1.000000
LMATRIX
 1.000000  0.000000  0.000000  0.000000
 0.000000  1.000000  0.000000  0.000000
 0.000000  0.000000  1.000000  0.000000
 0.000000  0.000000  0.000000  1.000000
 0.000000  0.000000  0.000000
CELLP
   7.202341   7.202341   7.202341  60.000000  60.000000  60.000000
  0.000000   0.000000   0.000000   0.000000   0.000000   0.000000
STRUC
  1 Y         Y1   1.0000   0.625000   0.125000   0.125000    1a       1
                            0.000000   0.000000   0.000000  0.00
  2 Y         Y2   1.0000   0.125000   0.625000   0.125000    1a       1
                            0.000000   0.000000   0.000000  0.00
  3 Y         Y3   1.0000   0.125000   0.125000   0.625000    1a       1
                            0.000000   0.000000   0.000000  0.00
  4 Y         Y4   1.0000   0.125000   0.125000   0.125000    1a       1
                            0.000000   0.000000   0.000000  0.00
  5 Ir        Ir1  1.0000   0.125000   0.625000   0.625000    1a       1
                            0.000000   0.000000   0.000000  0.00
  6 Ir        Ir2  1.0000   0.625000   0.125000   0.625000    1a       1
                            0.000000   0.000000   0.000000  0.00
  7 Ir        Ir3  1.0000   0.625000   0.625000   0.125000    1a       1
                            0.000000   0.000000   0.000000  0.00
  8 Ir        Ir4  1.0000   0.625000   0.625000   0.625000    1a       1
                            0.000000   0.000000   0.000000  0.00
  9 O         O1   1.0000   0.712932   0.712932   0.287068    1a       1
                            0.000000   0.000000   0.000000  0.00
  10 O         O2   1.0000   0.287068   0.287068   0.712932    1a       1
                            0.000000   0.000000   0.000000  0.00
  11 O         O3   1.0000   0.712932   0.287068   0.712932    1a       1
                            0.000000   0.000000   0.000000  0.00
  12 O         O4   1.0000   0.287068   0.712932   0.287068    1a       1
                            0.000000   0.000000   0.000000  0.00
  13 O         O5   1.0000   0.287068   0.712932   0.712932    1a       1
                            0.000000   0.000000   0.000000  0.00
  14 O         O6   1.0000   0.712932   0.287068   0.287068    1a       1
                            0.000000   0.000000   0.000000  0.00
  15 O         O7   1.0000   0.537068   0.537068   0.962932    1a       1
                            0.000000   0.000000   0.000000  0.00
  16 O         O8   1.0000   0.962932   0.962932   0.537068    1a       1
                            0.000000   0.000000   0.000000  0.00
  17 O         O9   1.0000   0.537068   0.962932   0.537068    1a       1
                            0.000000   0.000000   0.000000  0.00
  18 O         O10  1.0000   0.962932   0.537068   0.962932    1a       1
                            0.000000   0.000000   0.000000  0.00
  19 O         O11  1.0000   0.962932   0.537068   0.537068    1a       1
                            0.000000   0.000000   0.000000  0.00
  20 O         O12  1.0000   0.537068   0.962932   0.962932    1a       1
                            0.000000   0.000000   0.000000  0.00
  21 O         O13  1.0000   0.250000   0.250000   0.250000    1a       1
                            0.000000   0.000000   0.000000  0.00
  22 O         O14  1.0000   0.000000   0.000000   0.000000    1a       1
                            0.000000   0.000000   0.000000  0.00
  0 0 0 0 0 0 0
THERI 0
  1         Y1  1.000000
  2         Y2  1.000000
  3         Y3  1.000000
  4         Y4  1.000000
  5        Ir1  1.000000
  6        Ir2  1.000000
  7        Ir3  1.000000
  8        Ir4  1.000000
  9         O1  1.000000
  10         O2  1.000000
  11         O3  1.000000
  12         O4  1.000000
  13         O5  1.000000
  14         O6  1.000000
  15         O7  1.000000
  16         O8  1.000000
  17         O9  1.000000
  18        O10  1.000000
  19        O11  1.000000
  20        O12  1.000000
  21        O13  1.000000
  22        O14  1.000000
  0 0 0
SHAPE
  0       0       0       0   0.000000  0   192   192   192   192
BOUND
       0        1         0        1         0        1
  0   0   0   0  0
SBOND
  0 0 0 0
SITET
  1         Y1  1.8200 103 152 142 103 152 142 204  0
  2         Y2  1.8200 103 152 142 103 152 142 204  0
  3         Y3  1.8200 103 152 142 103 152 142 204  0
  4         Y4  1.8200 103 152 142 103 152 142 204  0
  5        Ir1  1.3600 201 207 115 201 207 115 204  0
  6        Ir2  1.3600 201 207 115 201 207 115 204  0
  7        Ir3  1.3600 201 207 115 201 207 115 204  0
  8        Ir4  1.3600 201 207 115 201 207 115 204  0
  9         O1  0.7400 255   3   0 255   3   0 204  0
  10         O2  0.7400 255   3   0 255   3   0 204  0
  11         O3  0.7400 255   3   0 255   3   0 204  0
  12         O4  0.7400 255   3   0 255   3   0 204  0
  13         O5  0.7400 255   3   0 255   3   0 204  0
  14         O6  0.7400 255   3   0 255   3   0 204  0
  15         O7  0.7400 255   3   0 255   3   0 204  0
  16         O8  0.7400 255   3   0 255   3   0 204  0
  17         O9  0.7400 255   3   0 255   3   0 204  0
  18        O10  0.7400 255   3   0 255   3   0 204  0
  19        O11  0.7400 255   3   0 255   3   0 204  0
  20        O12  0.7400 255   3   0 255   3   0 204  0
  21        O13  0.7400 255   3   0 255   3   0 204  0
  22        O14  0.7400 255   3   0 255   3   0 204  0
  0 0 0 0 0 0
VECTR
    1   0.00000   0.00000   0.00000
    1 0 0 0 0
  0 0 0 0 0
    2   0.00000   0.00000   0.00000
    2 0 0 0 0
  0 0 0 0 0
    3   0.00000   0.00000   0.00000
    3 0 0 0 0
  0 0 0 0 0
    4   0.00000   0.00000   0.00000
    4 0 0 0 0
  0 0 0 0 0
    5   1.06066   1.06066  -1.06066
    5 0 0 0 0
  0 0 0 0 0
    6   1.06066   1.06066  -1.06066
    6 0 0 0 0
  0 0 0 0 0
    7   1.06066   1.06066  -1.06066
    7 0 0 0 0
  0 0 0 0 0
    8   1.06066   1.06066  -1.06066
    8 0 0 0 0
  0 0 0 0 0
    9   0.00000   0.00000   0.00000
    9 0 0 0 0
  0 0 0 0 0
   10   0.00000   0.00000   0.00000
   10 0 0 0 0
  0 0 0 0 0
   11   0.00000   0.00000   0.00000
   11 0 0 0 0
  0 0 0 0 0
   12   0.00000   0.00000   0.00000
   12 0 0 0 0
  0 0 0 0 0
   13   0.00000   0.00000   0.00000
   13 0 0 0 0
  0 0 0 0 0
   14   0.00000   0.00000   0.00000
   14 0 0 0 0
  0 0 0 0 0
   15   0.00000   0.00000   0.00000
   15 0 0 0 0
  0 0 0 0 0
   16   0.00000   0.00000   0.00000
   16 0 0 0 0
  0 0 0 0 0
   17   0.00000   0.00000   0.00000
   17 0 0 0 0
  0 0 0 0 0
   18   0.00000   0.00000   0.00000
   18 0 0 0 0
  0 0 0 0 0
   19   0.00000   0.00000   0.00000
   19 0 0 0 0
  0 0 0 0 0
   20   0.00000   0.00000   0.00000
   20 0 0 0 0
  0 0 0 0 0
   21   0.00000   0.00000   0.00000
   21 0 0 0 0
  0 0 0 0 0
   22   0.00000   0.00000   0.00000
   22 0 0 0 0
  0 0 0 0 0
0 0 0 0 0
VECTT
    1  0.500 255   0   0 0
    2  0.500 255   0   0 0
    3  0.500 255   0   0 0
    4  0.500 255   0   0 0
    5  0.500 255   0   0 0
    6  0.500 255   0   0 0
    7  0.500 255   0   0 0
    8  0.500 255   0   0 0
    9  0.500 255   0   0 0
   10  0.500 255   0   0 0
   11  0.500 255   0   0 0
   12  0.500 255   0   0 0
   13  0.500 255   0   0 0
   14  0.500 255   0   0 0
   15  0.500 255   0   0 0
   16  0.500 255   0   0 0
   17  0.500 255   0   0 0
   18  0.500 255   0   0 0
   19  0.500 255   0   0 0
   20  0.500 255   0   0 0
   21  0.500 255   0   0 0
   22  0.500 255   0   0 0
0 0 0 0 0
SPLAN
  0   0   0   0
LBLAT
 -1
LBLSP
 -1
DLATM
 -1
DLBND
 -1
DLPLY
 -1
PLN2D
  0   0   0   0
ATOMT
  1          Y  1.8200 103 152 142 103 152 142 204
  2         Ir  1.3600 201 207 115 201 207 115 204
  3          O  0.7400 255   3   0 255   3   0 204
  0 0 0 0 0 0
SCENE
 1.000000  0.000000  0.000000  0.000000
 0.000000  1.000000  0.000000  0.000000
 0.000000  0.000000  1.000000  0.000000
 0.000000  0.000000  0.000000  1.000000
  0.000   0.000
  0.000
  1.000
HBOND 0 2

STYLE
DISPF 37753794
MODEL   0  1  0
SURFS   0  1  1
SECTS  96  1
FORMS   0  1
ATOMS   0  0  1
BONDS   1
POLYS   1
VECTS 1.000000
FORMP
  1  1.0   0   0   0
ATOMP
 24  24   0  50  2.0   0
BONDP
  1  16  0.250  2.000 127 127 127
POLYP
 204 1  1.000 180 180 180
ISURF
  0   0   0   0
TEX3P
  1 0.00000E+000 1.00000E+000
SECTP
  1 0.00000E+000 1.00000E+000 0.00000E+000
HKLPP
  92 0  1.000   0 128 255
UCOLP
   0   1  1.000   0   0   0
COMPS 1
LABEL 1    12  1.000 0
PROJT 0  0.962
BKGRC
 255 255 255
DPTHQ 1 -0.5000  3.5000
LIGHT0 1
 1.000000  0.000000  0.000000  0.000000
 0.000000  1.000000  0.000000  0.000000
 0.000000  0.000000  1.000000  0.000000
 0.000000  0.000000  0.000000  1.000000
 0.000000  0.000000 20.000000  0.000000
 0.000000  0.000000 -1.000000
  26  26  26 255
 179 179 179 255
 255 255 255 255
LIGHT1
 1.000000  0.000000  0.000000  0.000000
 0.000000  1.000000  0.000000  0.000000
 0.000000  0.000000  1.000000  0.000000
 0.000000  0.000000  0.000000  1.000000
 0.000000  0.000000 20.000000  0.000000
 0.000000  0.000000 -1.000000
   0   0   0   0
   0   0   0   0
   0   0   0   0
LIGHT2
 1.000000  0.000000  0.000000  0.000000
 0.000000  1.000000  0.000000  0.000000
 0.000000  0.000000  1.000000  0.000000
 0.000000  0.000000  0.000000  1.000000
 0.000000  0.000000 20.000000  0.000000
 0.000000  0.000000 -1.000000
   0   0   0   0
   0   0   0   0
   0   0   0   0
LIGHT3
 1.000000  0.000000  0.000000  0.000000
 0.000000  1.000000  0.000000  0.000000
 0.000000  0.000000  1.000000  0.000000
 0.000000  0.000000  0.000000  1.000000
 0.000000  0.000000 20.000000  0.000000
 0.000000  0.000000 -1.000000
   0   0   0   0
   0   0   0   0
   0   0   0   0
ATOMM
 204 204 204 255
  25.600
BONDM
 255 255 255 255
 128.000
POLYM
 255 255 255 255
 128.000
SURFM
   0   0   0 255
 128.000
FORMM
 255 255 255 255
 128.000
HKLPM
 255 255 255 255
 128.000
