generated by phonopy
   1.0
     4.6152858422444858    0.0000000000000000    0.0000000000000000
     0.0000000000000000    4.6152858422444858    0.0000000000000000
     0.0000000000000000    0.0000000000000000    2.9482438421632620
Ti O
   2    4
Direct
  0.0000000000000000  0.0000000000000000  0.0000000000000000
  0.5000000000000000  0.5000000000000000  0.5000000000000000
  0.6960313449858972  0.6960313449858972  0.0000000000000000
  0.3039686550141028  0.3039686550141028  0.0000000000000000
  0.1960313449858972  0.8039686550141028  0.5000000000000000
  0.8039686550141028  0.1960313449858972  0.5000000000000000
