#VESTA_FORMAT_VERSION 3.3.0


CRYSTAL

TITLE
La3Ni2O7 spin basis: GM3+(1) dipole x

GROUP
1 1 P 1
SYMOP
 0.000000  0.000000  0.000000  1  0  0   0  1  0   0  0  1   1
 -1.0 -1.0 -1.0  0 0 0  0 0 0  0 0 0
TRANM 0
 0.000000  0.000000  0.000000  1  0  0   0  1  0   0  0  1
LTRANSL
 -1
 0.000000  0.000000  0.000000  0.000000  0.000000  0.000000
LORIENT
 -1   0   0   0   0
 1.000000  0.000000  0.000000  1.000000  0.000000  0.000000
 0.000000  0.000000  1.000000  0.000000  0.000000  1.000000
LMATRIX
 1.000000  0.000000  0.000000  0.000000
 0.000000  1.000000  0.000000  0.000000
 0.000000  0.000000  1.000000  0.000000
 0.000000  0.000000  0.000000  1.000000
 0.000000  0.000000  0.000000
CELLP
   5.606272  20.312980   5.457088  90.000000  90.000000  90.000000
  0.000000   0.000000   0.000000   0.000000   0.000000   0.000000
STRUC
  1 La        La1  1.0000   0.736279   0.319708   0.750000    1a       1
                            0.000000   0.000000   0.000000  0.00
  2 La        La2  1.0000   0.263721   0.680292   0.250000    1a       1
                            0.000000   0.000000   0.000000  0.00
  3 La        La3  1.0000   0.736279   0.680292   0.750000    1a       1
                            0.000000   0.000000   0.000000  0.00
  4 La        La4  1.0000   0.263721   0.319708   0.250000    1a       1
                            0.000000   0.000000   0.000000  0.00
  5 La        La5  1.0000   0.749374   0.500000   0.750000    1a       1
                            0.000000   0.000000   0.000000  0.00
  6 La        La6  1.0000   0.250626   0.500000   0.250000    1a       1
                            0.000000   0.000000   0.000000  0.00
  7 Ni        Ni1  1.0000   0.247042   0.597450   0.750000    1a       1
                            0.000000   0.000000   0.000000  0.00
  8 Ni        Ni2  1.0000   0.752958   0.402550   0.250000    1a       1
                            0.000000   0.000000   0.000000  0.00
  9 Ni        Ni3  1.0000   0.247042   0.402550   0.750000    1a       1
                            0.000000   0.000000   0.000000  0.00
  10 Ni        Ni4  1.0000   0.752958   0.597450   0.250000    1a       1
                            0.000000   0.000000   0.000000  0.00
  11 O         O1   1.0000   0.000000   0.085382   0.000000    1a       1
                            0.000000   0.000000   0.000000  0.00
  12 O         O2   1.0000   0.000000   0.914618   0.500000    1a       1
                            0.000000   0.000000   0.000000  0.00
  13 O         O3   1.0000   0.000000   0.914618   0.000000    1a       1
                            0.000000   0.000000   0.000000  0.00
  14 O         O4   1.0000   0.000000   0.085382   0.500000    1a       1
                            0.000000   0.000000   0.000000  0.00
  15 O         O5   1.0000   0.000000   0.611730   0.500000    1a       1
                            0.000000   0.000000   0.000000  0.00
  16 O         O6   1.0000   0.000000   0.388270   0.000000    1a       1
                            0.000000   0.000000   0.000000  0.00
  17 O         O7   1.0000   0.000000   0.388270   0.500000    1a       1
                            0.000000   0.000000   0.000000  0.00
  18 O         O8   1.0000   0.000000   0.611730   0.000000    1a       1
                            0.000000   0.000000   0.000000  0.00
  19 O         O9   1.0000   0.807816   0.204838   0.750000    1a       1
                            0.000000   0.000000   0.000000  0.00
  20 O         O10  1.0000   0.192184   0.795162   0.250000    1a       1
                            0.000000   0.000000   0.000000  0.00
  21 O         O11  1.0000   0.826385   0.500000   0.250000    1a       1
                            0.000000   0.000000   0.000000  0.00
  22 O         O12  1.0000   0.173615   0.500000   0.750000    1a       1
                            0.000000   0.000000   0.000000  0.00
  23 O         O13  1.0000   0.192184   0.204838   0.250000    1a       1
                            0.000000   0.000000   0.000000  0.00
  24 O         O14  1.0000   0.807816   0.795162   0.750000    1a       1
                            0.000000   0.000000   0.000000  0.00
  25 La        La7  1.0000   0.236279   0.819708   0.750000    1a       1
                            0.000000   0.000000   0.000000  0.00
  26 La        La8  1.0000   0.763721   0.180292   0.250000    1a       1
                            0.000000   0.000000   0.000000  0.00
  27 La        La9  1.0000   0.236279   0.180292   0.750000    1a       1
                            0.000000   0.000000   0.000000  0.00
  28 La        La10 1.0000   0.763721   0.819708   0.250000    1a       1
                            0.000000   0.000000   0.000000  0.00
  29 La        La11 1.0000   0.249374   0.000000   0.750000    1a       1
                            0.000000   0.000000   0.000000  0.00
  30 La        La12 1.0000   0.750626   0.000000   0.250000    1a       1
                            0.000000   0.000000   0.000000  0.00
  31 Ni        Ni5  1.0000   0.747042   0.097450   0.750000    1a       1
                            0.000000   0.000000   0.000000  0.00
  32 Ni        Ni6  1.0000   0.252958   0.902550   0.250000    1a       1
                            0.000000   0.000000   0.000000  0.00
  33 Ni        Ni7  1.0000   0.747042   0.902550   0.750000    1a       1
                            0.000000   0.000000   0.000000  0.00
  34 Ni        Ni8  1.0000   0.252958   0.097450   0.250000    1a       1
                            0.000000   0.000000   0.000000  0.00
  35 O         O15  1.0000   0.500000   0.585382   0.000000    1a       1
                            0.000000   0.000000   0.000000  0.00
  36 O         O16  1.0000   0.500000   0.414618   0.500000    1a       1
                            0.000000   0.000000   0.000000  0.00
  37 O         O17  1.0000   0.500000   0.414618   0.000000    1a       1
                            0.000000   0.000000   0.000000  0.00
  38 O         O18  1.0000   0.500000   0.585382   0.500000    1a       1
                            0.000000   0.000000   0.000000  0.00
  39 O         O19  1.0000   0.500000   0.111730   0.500000    1a       1
                            0.000000   0.000000   0.000000  0.00
  40 O         O20  1.0000   0.500000   0.888270   0.000000    1a       1
                            0.000000   0.000000   0.000000  0.00
  41 O         O21  1.0000   0.500000   0.888270   0.500000    1a       1
                            0.000000   0.000000   0.000000  0.00
  42 O         O22  1.0000   0.500000   0.111730   0.000000    1a       1
                            0.000000   0.000000   0.000000  0.00
  43 O         O23  1.0000   0.307816   0.704838   0.750000    1a       1
                            0.000000   0.000000   0.000000  0.00
  44 O         O24  1.0000   0.692184   0.295162   0.250000    1a       1
                            0.000000   0.000000   0.000000  0.00
  45 O         O25  1.0000   0.326385   0.000000   0.250000    1a       1
                            0.000000   0.000000   0.000000  0.00
  46 O         O26  1.0000   0.673615   0.000000   0.750000    1a       1
                            0.000000   0.000000   0.000000  0.00
  47 O         O27  1.0000   0.692184   0.704838   0.250000    1a       1
                            0.000000   0.000000   0.000000  0.00
  48 O         O28  1.0000   0.307816   0.295162   0.750000    1a       1
                            0.000000   0.000000   0.000000  0.00
  0 0 0 0 0 0 0
THERI 0
  1        La1  1.000000
  2        La2  1.000000
  3        La3  1.000000
  4        La4  1.000000
  5        La5  1.000000
  6        La6  1.000000
  7        Ni1  1.000000
  8        Ni2  1.000000
  9        Ni3  1.000000
  10        Ni4  1.000000
  11         O1  1.000000
  12         O2  1.000000
  13         O3  1.000000
  14         O4  1.000000
  15         O5  1.000000
  16         O6  1.000000
  17         O7  1.000000
  18         O8  1.000000
  19         O9  1.000000
  20        O10  1.000000
  21        O11  1.000000
  22        O12  1.000000
  23        O13  1.000000
  24        O14  1.000000
  25        La7  1.000000
  26        La8  1.000000
  27        La9  1.000000
  28       La10  1.000000
  29       La11  1.000000
  30       La12  1.000000
  31        Ni5  1.000000
  32        Ni6  1.000000
  33        Ni7  1.000000
  34        Ni8  1.000000
  35        O15  1.000000
  36        O16  1.000000
  37        O17  1.000000
  38        O18  1.000000
  39        O19  1.000000
  40        O20  1.000000
  41        O21  1.000000
  42        O22  1.000000
  43        O23  1.000000
  44        O24  1.000000
  45        O25  1.000000
  46        O26  1.000000
  47        O27  1.000000
  48        O28  1.000000
  0 0 0
SHAPE
  0       0       0       0   0.000000  0   192   192   192   192
BOUND
       0        1         0        1         0        1
  0   0   0   0  0
SBOND
  0 0 0 0
SITET
  1        La1  1.8800  90 196  73  90 196  73 204  0
  2        La2  1.8800  90 196  73  90 196  73 204  0
  3        La3  1.8800  90 196  73  90 196  73 204  0
  4        La4  1.8800  90 196  73  90 196  73 204  0
  5        La5  1.8800  90 196  73  90 196  73 204  0
  6        La6  1.8800  90 196  73  90 196  73 204  0
  7        Ni1  1.2500 184 188 190 184 188 190 204  0
  8        Ni2  1.2500 184 188 190 184 188 190 204  0
  9        Ni3  1.2500 184 188 190 184 188 190 204  0
  10        Ni4  1.2500 184 188 190 184 188 190 204  0
  11         O1  0.7400 255   3   0 255   3   0 204  0
  12         O2  0.7400 255   3   0 255   3   0 204  0
  13         O3  0.7400 255   3   0 255   3   0 204  0
  14         O4  0.7400 255   3   0 255   3   0 204  0
  15         O5  0.7400 255   3   0 255   3   0 204  0
  16         O6  0.7400 255   3   0 255   3   0 204  0
  17         O7  0.7400 255   3   0 255   3   0 204  0
  18         O8  0.7400 255   3   0 255   3   0 204  0
  19         O9  0.7400 255   3   0 255   3   0 204  0
  20        O10  0.7400 255   3   0 255   3   0 204  0
  21        O11  0.7400 255   3   0 255   3   0 204  0
  22        O12  0.7400 255   3   0 255   3   0 204  0
  23        O13  0.7400 255   3   0 255   3   0 204  0
  24        O14  0.7400 255   3   0 255   3   0 204  0
  25        La7  1.8800  90 196  73  90 196  73 204  0
  26        La8  1.8800  90 196  73  90 196  73 204  0
  27        La9  1.8800  90 196  73  90 196  73 204  0
  28       La10  1.8800  90 196  73  90 196  73 204  0
  29       La11  1.8800  90 196  73  90 196  73 204  0
  30       La12  1.8800  90 196  73  90 196  73 204  0
  31        Ni5  1.2500 184 188 190 184 188 190 204  0
  32        Ni6  1.2500 184 188 190 184 188 190 204  0
  33        Ni7  1.2500 184 188 190 184 188 190 204  0
  34        Ni8  1.2500 184 188 190 184 188 190 204  0
  35        O15  0.7400 255   3   0 255   3   0 204  0
  36        O16  0.7400 255   3   0 255   3   0 204  0
  37        O17  0.7400 255   3   0 255   3   0 204  0
  38        O18  0.7400 255   3   0 255   3   0 204  0
  39        O19  0.7400 255   3   0 255   3   0 204  0
  40        O20  0.7400 255   3   0 255   3   0 204  0
  41        O21  0.7400 255   3   0 255   3   0 204  0
  42        O22  0.7400 255   3   0 255   3   0 204  0
  43        O23  0.7400 255   3   0 255   3   0 204  0
  44        O24  0.7400 255   3   0 255   3   0 204  0
  45        O25  0.7400 255   3   0 255   3   0 204  0
  46        O26  0.7400 255   3   0 255   3   0 204  0
  47        O27  0.7400 255   3   0 255   3   0 204  0
  48        O28  0.7400 255   3   0 255   3   0 204  0
  0 0 0 0 0 0
VECTR
    1   0.00000   0.00000   0.00000
    1 0 0 0 0
  0 0 0 0 0
    2   0.00000   0.00000   0.00000
    2 0 0 0 0
  0 0 0 0 0
    3   0.00000   0.00000   0.00000
    3 0 0 0 0
  0 0 0 0 0
    4   0.00000   0.00000   0.00000
    4 0 0 0 0
  0 0 0 0 0
    5   0.00000   0.00000   0.00000
    5 0 0 0 0
  0 0 0 0 0
    6   0.00000   0.00000   0.00000
    6 0 0 0 0
  0 0 0 0 0
    7  -0.00000   1.50000   0.00000
    7 0 0 0 0
  0 0 0 0 0
    8  -0.00000   1.50000   0.00000
    8 0 0 0 0
  0 0 0 0 0
    9   0.00000   1.50000   0.00000
    9 0 0 0 0
  0 0 0 0 0
   10   0.00000   1.50000   0.00000
   10 0 0 0 0
  0 0 0 0 0
   11   0.00000   0.00000   0.00000
   11 0 0 0 0
  0 0 0 0 0
   12   0.00000   0.00000   0.00000
   12 0 0 0 0
  0 0 0 0 0
   13   0.00000   0.00000   0.00000
   13 0 0 0 0
  0 0 0 0 0
   14   0.00000   0.00000   0.00000
   14 0 0 0 0
  0 0 0 0 0
   15   0.00000   0.00000   0.00000
   15 0 0 0 0
  0 0 0 0 0
   16   0.00000   0.00000   0.00000
   16 0 0 0 0
  0 0 0 0 0
   17   0.00000   0.00000   0.00000
   17 0 0 0 0
  0 0 0 0 0
   18   0.00000   0.00000   0.00000
   18 0 0 0 0
  0 0 0 0 0
   19   0.00000   0.00000   0.00000
   19 0 0 0 0
  0 0 0 0 0
   20   0.00000   0.00000   0.00000
   20 0 0 0 0
  0 0 0 0 0
   21   0.00000   0.00000   0.00000
   21 0 0 0 0
  0 0 0 0 0
   22   0.00000   0.00000   0.00000
   22 0 0 0 0
  0 0 0 0 0
   23   0.00000   0.00000   0.00000
   23 0 0 0 0
  0 0 0 0 0
   24   0.00000   0.00000   0.00000
   24 0 0 0 0
  0 0 0 0 0
   25   0.00000   0.00000   0.00000
   25 0 0 0 0
  0 0 0 0 0
   26   0.00000   0.00000   0.00000
   26 0 0 0 0
  0 0 0 0 0
   27   0.00000   0.00000   0.00000
   27 0 0 0 0
  0 0 0 0 0
   28   0.00000   0.00000   0.00000
   28 0 0 0 0
  0 0 0 0 0
   29   0.00000   0.00000   0.00000
   29 0 0 0 0
  0 0 0 0 0
   30   0.00000   0.00000   0.00000
   30 0 0 0 0
  0 0 0 0 0
   31  -0.00000   1.50000   0.00000
   31 0 0 0 0
  0 0 0 0 0
   32  -0.00000   1.50000   0.00000
   32 0 0 0 0
  0 0 0 0 0
   33   0.00000   1.50000   0.00000
   33 0 0 0 0
  0 0 0 0 0
   34   0.00000   1.50000   0.00000
   34 0 0 0 0
  0 0 0 0 0
   35   0.00000   0.00000   0.00000
   35 0 0 0 0
  0 0 0 0 0
   36   0.00000   0.00000   0.00000
   36 0 0 0 0
  0 0 0 0 0
   37   0.00000   0.00000   0.00000
   37 0 0 0 0
  0 0 0 0 0
   38   0.00000   0.00000   0.00000
   38 0 0 0 0
  0 0 0 0 0
   39   0.00000   0.00000   0.00000
   39 0 0 0 0
  0 0 0 0 0
   40   0.00000   0.00000   0.00000
   40 0 0 0 0
  0 0 0 0 0
   41   0.00000   0.00000   0.00000
   41 0 0 0 0
  0 0 0 0 0
   42   0.00000   0.00000   0.00000
   42 0 0 0 0
  0 0 0 0 0
   43   0.00000   0.00000   0.00000
   43 0 0 0 0
  0 0 0 0 0
   44   0.00000   0.00000   0.00000
   44 0 0 0 0
  0 0 0 0 0
   45   0.00000   0.00000   0.00000
   45 0 0 0 0
  0 0 0 0 0
   46   0.00000   0.00000   0.00000
   46 0 0 0 0
  0 0 0 0 0
   47   0.00000   0.00000   0.00000
   47 0 0 0 0
  0 0 0 0 0
   48   0.00000   0.00000   0.00000
   48 0 0 0 0
  0 0 0 0 0
0 0 0 0 0
VECTT
    1  0.500 255   0   0 0
    2  0.500 255   0   0 0
    3  0.500 255   0   0 0
    4  0.500 255   0   0 0
    5  0.500 255   0   0 0
    6  0.500 255   0   0 0
    7  0.500 255   0   0 0
    8  0.500 255   0   0 0
    9  0.500 255   0   0 0
   10  0.500 255   0   0 0
   11  0.500 255   0   0 0
   12  0.500 255   0   0 0
   13  0.500 255   0   0 0
   14  0.500 255   0   0 0
   15  0.500 255   0   0 0
   16  0.500 255   0   0 0
   17  0.500 255   0   0 0
   18  0.500 255   0   0 0
   19  0.500 255   0   0 0
   20  0.500 255   0   0 0
   21  0.500 255   0   0 0
   22  0.500 255   0   0 0
   23  0.500 255   0   0 0
   24  0.500 255   0   0 0
   25  0.500 255   0   0 0
   26  0.500 255   0   0 0
   27  0.500 255   0   0 0
   28  0.500 255   0   0 0
   29  0.500 255   0   0 0
   30  0.500 255   0   0 0
   31  0.500 255   0   0 0
   32  0.500 255   0   0 0
   33  0.500 255   0   0 0
   34  0.500 255   0   0 0
   35  0.500 255   0   0 0
   36  0.500 255   0   0 0
   37  0.500 255   0   0 0
   38  0.500 255   0   0 0
   39  0.500 255   0   0 0
   40  0.500 255   0   0 0
   41  0.500 255   0   0 0
   42  0.500 255   0   0 0
   43  0.500 255   0   0 0
   44  0.500 255   0   0 0
   45  0.500 255   0   0 0
   46  0.500 255   0   0 0
   47  0.500 255   0   0 0
   48  0.500 255   0   0 0
0 0 0 0 0
SPLAN
  0   0   0   0
LBLAT
 -1
LBLSP
 -1
DLATM
 -1
DLBND
 -1
DLPLY
 -1
PLN2D
  0   0   0   0
ATOMT
  1         La  1.8800  90 196  73  90 196  73 204
  2         Ni  1.2500 184 188 190 184 188 190 204
  3          O  0.7400 255   3   0 255   3   0 204
  0 0 0 0 0 0
SCENE
 1.000000  0.000000  0.000000  0.000000
 0.000000  1.000000  0.000000  0.000000
 0.000000  0.000000  1.000000  0.000000
 0.000000  0.000000  0.000000  1.000000
  0.000   0.000
  0.000
  1.000
HBOND 0 2

STYLE
DISPF 37753794
MODEL   0  1  0
SURFS   0  1  1
SECTS  96  1
FORMS   0  1
ATOMS   0  0  1
BONDS   1
POLYS   1
VECTS 1.000000
FORMP
  1  1.0   0   0   0
ATOMP
 24  24   0  50  2.0   0
BONDP
  1  16  0.250  2.000 127 127 127
POLYP
 204 1  1.000 180 180 180
ISURF
  0   0   0   0
TEX3P
  1 0.00000E+000 1.00000E+000
SECTP
  1 0.00000E+000 1.00000E+000 0.00000E+000
HKLPP
  92 0  1.000   0 128 255
UCOLP
   0   1  1.000   0   0   0
COMPS 1
LABEL 1    12  1.000 0
PROJT 0  0.962
BKGRC
 255 255 255
DPTHQ 1 -0.5000  3.5000
LIGHT0 1
 1.000000  0.000000  0.000000  0.000000
 0.000000  1.000000  0.000000  0.000000
 0.000000  0.000000  1.000000  0.000000
 0.000000  0.000000  0.000000  1.000000
 0.000000  0.000000 20.000000  0.000000
 0.000000  0.000000 -1.000000
  26  26  26 255
 179 179 179 255
 255 255 255 255
LIGHT1
 1.000000  0.000000  0.000000  0.000000
 0.000000  1.000000  0.000000  0.000000
 0.000000  0.000000  1.000000  0.000000
 0.000000  0.000000  0.000000  1.000000
 0.000000  0.000000 20.000000  0.000000
 0.000000  0.000000 -1.000000
   0   0   0   0
   0   0   0   0
   0   0   0   0
LIGHT2
 1.000000  0.000000  0.000000  0.000000
 0.000000  1.000000  0.000000  0.000000
 0.000000  0.000000  1.000000  0.000000
 0.000000  0.000000  0.000000  1.000000
 0.000000  0.000000 20.000000  0.000000
 0.000000  0.000000 -1.000000
   0   0   0   0
   0   0   0   0
   0   0   0   0
LIGHT3
 1.000000  0.000000  0.000000  0.000000
 0.000000  1.000000  0.000000  0.000000
 0.000000  0.000000  1.000000  0.000000
 0.000000  0.000000  0.000000  1.000000
 0.000000  0.000000 20.000000  0.000000
 0.000000  0.000000 -1.000000
   0   0   0   0
   0   0   0   0
   0   0   0   0
ATOMM
 204 204 204 255
  25.600
BONDM
 255 255 255 255
 128.000
POLYM
 255 255 255 255
 128.000
SURFM
   0   0   0 255
 128.000
FORMM
 255 255 255 255
 128.000
HKLPM
 255 255 255 255
 128.000
