generated by phonopy
   1.0
    -1.9069020000000005    1.9069020000000005    6.6124510000000019
     1.9069020000000005   -1.9069020000000005    6.6124510000000019
     1.9069020000000005    1.9069020000000005   -6.6124510000000019
La Cu O
   2    1    4
Direct
  0.3608930000000000  0.3608930000000000  0.0000000000000000
  0.6391070000000001  0.6391070000000001  0.0000000000000000
  0.0000000000000000  0.0000000000000000  0.0000000000000000
  0.5000000000000000  0.0000000000000000  0.5000000000000000
  0.0000000000000000  0.5000000000000000  0.5000000000000000
  0.1862259999999999  0.1862259999999999  0.0000000000000000
  0.8137740000000000  0.8137740000000000  0.0000000000000000
