generated by phonopy
   1.0
    10.1856482799999988    0.0000000000000000    0.0000000000000000
     0.0000000000000000   10.1856482799999988    0.0000000000000000
     0.0000000000000000    0.0000000000000000   10.1856482799999988
Y Ir O
  16   16   56
Direct
  0.6250000000000000  0.8750000000000000  0.3750000000000000
  0.3750000000000000  0.1250000000000000  0.3750000000000000
  0.8750000000000000  0.8750000000000000  0.1250000000000000
  0.1250000000000000  0.1250000000000000  0.1250000000000000
  0.6250000000000000  0.3750000000000000  0.8750000000000000
  0.3750000000000000  0.6250000000000000  0.8750000000000000
  0.8750000000000000  0.3750000000000000  0.6250000000000000
  0.1250000000000000  0.6250000000000000  0.6250000000000000
  0.1250000000000000  0.8750000000000000  0.8750000000000000
  0.8750000000000000  0.1250000000000000  0.8750000000000000
  0.3750000000000000  0.8750000000000000  0.6250000000000000
  0.6250000000000000  0.1250000000000000  0.6250000000000000
  0.1250000000000000  0.3750000000000000  0.3750000000000000
  0.8750000000000000  0.6250000000000000  0.3750000000000000
  0.3750000000000000  0.3750000000000000  0.1250000000000000
  0.6250000000000000  0.6250000000000000  0.1250000000000000
  0.1250000000000000  0.8750000000000000  0.3750000000000000
  0.3750000000000000  0.6250000000000000  0.3750000000000000
  0.3750000000000000  0.8750000000000000  0.1250000000000000
  0.1250000000000000  0.6250000000000000  0.1250000000000000
  0.1250000000000000  0.3750000000000000  0.8750000000000000
  0.3750000000000000  0.1250000000000000  0.8750000000000000
  0.3750000000000000  0.3750000000000000  0.6250000000000000
  0.1250000000000000  0.1250000000000000  0.6250000000000000
  0.6250000000000000  0.8750000000000000  0.8750000000000000
  0.8750000000000000  0.6250000000000000  0.8750000000000000
  0.8750000000000000  0.8750000000000000  0.6250000000000000
  0.6250000000000000  0.6250000000000000  0.6250000000000000
  0.6250000000000000  0.3750000000000000  0.3750000000000000
  0.8750000000000000  0.1250000000000000  0.3750000000000000
  0.8750000000000000  0.3750000000000000  0.1250000000000000
  0.6250000000000000  0.1250000000000000  0.1250000000000000
  0.5000000000000000  0.0000000000000000  0.2129323600000000
  0.0000000000000000  0.0000000000000000  0.2870676400000000
  0.5000000000000000  0.7129323599999999  0.5000000000000000
  0.5000000000000000  0.2870676400000000  0.5000000000000000
  0.2129323600000000  0.0000000000000000  0.5000000000000000
  0.7870676400000001  0.0000000000000000  0.5000000000000000
  0.2500000000000000  0.7500000000000000  0.0370676400000000
  0.2500000000000000  0.7500000000000000  0.4629323600000000
  0.2500000000000000  0.5370676400000001  0.2500000000000000
  0.2500000000000000  0.9629323599999999  0.2500000000000000
  0.0370676400000000  0.7500000000000000  0.2500000000000000
  0.4629323600000000  0.7500000000000000  0.2500000000000000
  0.2500000000000000  0.2500000000000000  0.2500000000000000
  0.5000000000000000  0.0000000000000000  0.5000000000000000
  0.5000000000000000  0.5000000000000000  0.7129323599999999
  0.0000000000000000  0.5000000000000000  0.7870676400000001
  0.5000000000000000  0.2129323599999999  0.0000000000000000
  0.5000000000000000  0.7870676400000001  0.0000000000000000
  0.2129323600000000  0.5000000000000000  0.0000000000000000
  0.7870676400000001  0.5000000000000000  0.0000000000000000
  0.2500000000000000  0.2500000000000000  0.5370676400000001
  0.2500000000000000  0.2500000000000000  0.9629323599999999
  0.2500000000000000  0.0370676400000001  0.7500000000000000
  0.2500000000000000  0.4629323599999999  0.7500000000000000
  0.0370676400000000  0.2500000000000000  0.7500000000000000
  0.4629323600000000  0.2500000000000000  0.7500000000000000
  0.2500000000000000  0.7500000000000000  0.7500000000000000
  0.5000000000000000  0.5000000000000000  0.0000000000000000
  0.0000000000000000  0.0000000000000000  0.7129323599999999
  0.5000000000000000  0.0000000000000000  0.7870676400000001
  0.0000000000000000  0.7129323599999999  0.0000000000000000
  0.0000000000000000  0.2870676400000000  0.0000000000000000
  0.7129323599999999  0.0000000000000000  0.0000000000000000
  0.2870676400000001  0.0000000000000000  0.0000000000000000
  0.7500000000000000  0.7500000000000000  0.5370676400000001
  0.7500000000000000  0.7500000000000000  0.9629323599999999
  0.7500000000000000  0.5370676400000001  0.7500000000000000
  0.7500000000000000  0.9629323599999999  0.7500000000000000
  0.5370676400000001  0.7500000000000000  0.7500000000000000
  0.9629323599999999  0.7500000000000000  0.7500000000000000
  0.7500000000000000  0.2500000000000000  0.7500000000000000
  0.0000000000000000  0.0000000000000000  0.0000000000000000
  0.0000000000000000  0.5000000000000000  0.2129323600000000
  0.5000000000000000  0.5000000000000000  0.2870676400000000
  0.0000000000000000  0.2129323599999999  0.5000000000000000
  0.0000000000000000  0.7870676400000001  0.5000000000000000
  0.7129323599999999  0.5000000000000000  0.5000000000000000
  0.2870676400000001  0.5000000000000000  0.5000000000000000
  0.7500000000000000  0.2500000000000000  0.0370676400000000
  0.7500000000000000  0.2500000000000000  0.4629323600000000
  0.7500000000000000  0.0370676400000001  0.2500000000000000
  0.7500000000000000  0.4629323599999999  0.2500000000000000
  0.5370676400000001  0.2500000000000000  0.2500000000000000
  0.9629323599999999  0.2500000000000000  0.2500000000000000
  0.7500000000000000  0.7500000000000000  0.2500000000000000
  0.0000000000000000  0.5000000000000000  0.5000000000000000
