#VESTA_FORMAT_VERSION 3.3.0


CRYSTAL

TITLE
AlNi3 spin basis: R3+(2) R comp0

GROUP
1 1 P 1
SYMOP
 0.000000  0.000000  0.000000  1  0  0   0  1  0   0  0  1   1
 -1.0 -1.0 -1.0  0 0 0  0 0 0  0 0 0
TRANM 0
 0.000000  0.000000  0.000000  1  0  0   0  1  0   0  0  1
LTRANSL
 -1
 0.000000  0.000000  0.000000  0.000000  0.000000  0.000000
LORIENT
 -1   0   0   0   0
 1.000000  0.000000  0.000000  1.000000  0.000000  0.000000
 0.000000  0.000000  1.000000  0.000000  0.000000  1.000000
LMATRIX
 1.000000  0.000000  0.000000  0.000000
 0.000000  1.000000  0.000000  0.000000
 0.000000  0.000000  1.000000  0.000000
 0.000000  0.000000  0.000000  1.000000
 0.000000  0.000000  0.000000
CELLP
   7.122168   7.122168   7.122168  90.000000  90.000000  90.000000
  0.000000   0.000000   0.000000   0.000000   0.000000   0.000000
STRUC
  1 Al        Al1  1.0000   0.000000   0.000000   0.000000    1a       1
                            0.000000   0.000000   0.000000  0.00
  2 Ni        Ni1  1.0000   0.250000   0.250000   0.000000    1a       1
                            0.000000   0.000000   0.000000  0.00
  3 Ni        Ni2  1.0000   0.250000   0.000000   0.250000    1a       1
                            0.000000   0.000000   0.000000  0.00
  4 Ni        Ni3  1.0000   0.000000   0.250000   0.250000    1a       1
                            0.000000   0.000000   0.000000  0.00
  5 Al        Al2  1.0000   0.000000   0.000000   0.500000    1a       1
                            0.000000   0.000000   0.000000  0.00
  6 Ni        Ni4  1.0000   0.250000   0.250000   0.500000    1a       1
                            0.000000   0.000000   0.000000  0.00
  7 Ni        Ni5  1.0000   0.250000   0.000000   0.750000    1a       1
                            0.000000   0.000000   0.000000  0.00
  8 Ni        Ni6  1.0000   0.000000   0.250000   0.750000    1a       1
                            0.000000   0.000000   0.000000  0.00
  9 Al        Al3  1.0000   0.000000   0.500000   0.000000    1a       1
                            0.000000   0.000000   0.000000  0.00
  10 Ni        Ni7  1.0000   0.250000   0.750000   0.000000    1a       1
                            0.000000   0.000000   0.000000  0.00
  11 Ni        Ni8  1.0000   0.250000   0.500000   0.250000    1a       1
                            0.000000   0.000000   0.000000  0.00
  12 Ni        Ni9  1.0000   0.000000   0.750000   0.250000    1a       1
                            0.000000   0.000000   0.000000  0.00
  13 Al        Al4  1.0000   0.000000   0.500000   0.500000    1a       1
                            0.000000   0.000000   0.000000  0.00
  14 Ni        Ni10 1.0000   0.250000   0.750000   0.500000    1a       1
                            0.000000   0.000000   0.000000  0.00
  15 Ni        Ni11 1.0000   0.250000   0.500000   0.750000    1a       1
                            0.000000   0.000000   0.000000  0.00
  16 Ni        Ni12 1.0000   0.000000   0.750000   0.750000    1a       1
                            0.000000   0.000000   0.000000  0.00
  17 Al        Al5  1.0000   0.500000   0.000000   0.000000    1a       1
                            0.000000   0.000000   0.000000  0.00
  18 Ni        Ni13 1.0000   0.750000   0.250000   0.000000    1a       1
                            0.000000   0.000000   0.000000  0.00
  19 Ni        Ni14 1.0000   0.750000   0.000000   0.250000    1a       1
                            0.000000   0.000000   0.000000  0.00
  20 Ni        Ni15 1.0000   0.500000   0.250000   0.250000    1a       1
                            0.000000   0.000000   0.000000  0.00
  21 Al        Al6  1.0000   0.500000   0.000000   0.500000    1a       1
                            0.000000   0.000000   0.000000  0.00
  22 Ni        Ni16 1.0000   0.750000   0.250000   0.500000    1a       1
                            0.000000   0.000000   0.000000  0.00
  23 Ni        Ni17 1.0000   0.750000   0.000000   0.750000    1a       1
                            0.000000   0.000000   0.000000  0.00
  24 Ni        Ni18 1.0000   0.500000   0.250000   0.750000    1a       1
                            0.000000   0.000000   0.000000  0.00
  25 Al        Al7  1.0000   0.500000   0.500000   0.000000    1a       1
                            0.000000   0.000000   0.000000  0.00
  26 Ni        Ni19 1.0000   0.750000   0.750000   0.000000    1a       1
                            0.000000   0.000000   0.000000  0.00
  27 Ni        Ni20 1.0000   0.750000   0.500000   0.250000    1a       1
                            0.000000   0.000000   0.000000  0.00
  28 Ni        Ni21 1.0000   0.500000   0.750000   0.250000    1a       1
                            0.000000   0.000000   0.000000  0.00
  29 Al        Al8  1.0000   0.500000   0.500000   0.500000    1a       1
                            0.000000   0.000000   0.000000  0.00
  30 Ni        Ni22 1.0000   0.750000   0.750000   0.500000    1a       1
                            0.000000   0.000000   0.000000  0.00
  31 Ni        Ni23 1.0000   0.750000   0.500000   0.750000    1a       1
                            0.000000   0.000000   0.000000  0.00
  32 Ni        Ni24 1.0000   0.500000   0.750000   0.750000    1a       1
                            0.000000   0.000000   0.000000  0.00
  0 0 0 0 0 0 0
THERI 0
  1        Al1  1.000000
  2        Ni1  1.000000
  3        Ni2  1.000000
  4        Ni3  1.000000
  5        Al2  1.000000
  6        Ni4  1.000000
  7        Ni5  1.000000
  8        Ni6  1.000000
  9        Al3  1.000000
  10        Ni7  1.000000
  11        Ni8  1.000000
  12        Ni9  1.000000
  13        Al4  1.000000
  14       Ni10  1.000000
  15       Ni11  1.000000
  16       Ni12  1.000000
  17        Al5  1.000000
  18       Ni13  1.000000
  19       Ni14  1.000000
  20       Ni15  1.000000
  21        Al6  1.000000
  22       Ni16  1.000000
  23       Ni17  1.000000
  24       Ni18  1.000000
  25        Al7  1.000000
  26       Ni19  1.000000
  27       Ni20  1.000000
  28       Ni21  1.000000
  29        Al8  1.000000
  30       Ni22  1.000000
  31       Ni23  1.000000
  32       Ni24  1.000000
  0 0 0
SHAPE
  0       0       0       0   0.000000  0   192   192   192   192
BOUND
       0        1         0        1         0        1
  0   0   0   0  0
SBOND
  0 0 0 0
SITET
  1        Al1  1.4300 129 179 214 129 179 214 204  0
  2        Ni1  1.2500 184 188 190 184 188 190 204  0
  3        Ni2  1.2500 184 188 190 184 188 190 204  0
  4        Ni3  1.2500 184 188 190 184 188 190 204  0
  5        Al2  1.4300 129 179 214 129 179 214 204  0
  6        Ni4  1.2500 184 188 190 184 188 190 204  0
  7        Ni5  1.2500 184 188 190 184 188 190 204  0
  8        Ni6  1.2500 184 188 190 184 188 190 204  0
  9        Al3  1.4300 129 179 214 129 179 214 204  0
  10        Ni7  1.2500 184 188 190 184 188 190 204  0
  11        Ni8  1.2500 184 188 190 184 188 190 204  0
  12        Ni9  1.2500 184 188 190 184 188 190 204  0
  13        Al4  1.4300 129 179 214 129 179 214 204  0
  14       Ni10  1.2500 184 188 190 184 188 190 204  0
  15       Ni11  1.2500 184 188 190 184 188 190 204  0
  16       Ni12  1.2500 184 188 190 184 188 190 204  0
  17        Al5  1.4300 129 179 214 129 179 214 204  0
  18       Ni13  1.2500 184 188 190 184 188 190 204  0
  19       Ni14  1.2500 184 188 190 184 188 190 204  0
  20       Ni15  1.2500 184 188 190 184 188 190 204  0
  21        Al6  1.4300 129 179 214 129 179 214 204  0
  22       Ni16  1.2500 184 188 190 184 188 190 204  0
  23       Ni17  1.2500 184 188 190 184 188 190 204  0
  24       Ni18  1.2500 184 188 190 184 188 190 204  0
  25        Al7  1.4300 129 179 214 129 179 214 204  0
  26       Ni19  1.2500 184 188 190 184 188 190 204  0
  27       Ni20  1.2500 184 188 190 184 188 190 204  0
  28       Ni21  1.2500 184 188 190 184 188 190 204  0
  29        Al8  1.4300 129 179 214 129 179 214 204  0
  30       Ni22  1.2500 184 188 190 184 188 190 204  0
  31       Ni23  1.2500 184 188 190 184 188 190 204  0
  32       Ni24  1.2500 184 188 190 184 188 190 204  0
  0 0 0 0 0 0
VECTR
    1   0.00000   0.00000   0.00000
    1 0 0 0 0
  0 0 0 0 0
    2   0.00000   0.00000   1.50000
    2 0 0 0 0
  0 0 0 0 0
    3   0.00000  -0.75000   0.00000
    3 0 0 0 0
  0 0 0 0 0
    4  -0.75000   0.00000   0.00000
    4 0 0 0 0
  0 0 0 0 0
    5   0.00000   0.00000   0.00000
    5 0 0 0 0
  0 0 0 0 0
    6   0.00000   0.00000  -1.50000
    6 0 0 0 0
  0 0 0 0 0
    7   0.00000   0.75000   0.00000
    7 0 0 0 0
  0 0 0 0 0
    8   0.75000   0.00000   0.00000
    8 0 0 0 0
  0 0 0 0 0
    9   0.00000   0.00000   0.00000
    9 0 0 0 0
  0 0 0 0 0
   10   0.00000   0.00000  -1.50000
   10 0 0 0 0
  0 0 0 0 0
   11   0.00000   0.75000   0.00000
   11 0 0 0 0
  0 0 0 0 0
   12   0.75000   0.00000   0.00000
   12 0 0 0 0
  0 0 0 0 0
   13   0.00000   0.00000   0.00000
   13 0 0 0 0
  0 0 0 0 0
   14   0.00000   0.00000   1.50000
   14 0 0 0 0
  0 0 0 0 0
   15   0.00000  -0.75000   0.00000
   15 0 0 0 0
  0 0 0 0 0
   16  -0.75000   0.00000   0.00000
   16 0 0 0 0
  0 0 0 0 0
   17   0.00000   0.00000   0.00000
   17 0 0 0 0
  0 0 0 0 0
   18   0.00000   0.00000  -1.50000
   18 0 0 0 0
  0 0 0 0 0
   19   0.00000   0.75000   0.00000
   19 0 0 0 0
  0 0 0 0 0
   20   0.75000   0.00000   0.00000
   20 0 0 0 0
  0 0 0 0 0
   21   0.00000   0.00000   0.00000
   21 0 0 0 0
  0 0 0 0 0
   22   0.00000   0.00000   1.50000
   22 0 0 0 0
  0 0 0 0 0
   23   0.00000  -0.75000   0.00000
   23 0 0 0 0
  0 0 0 0 0
   24  -0.75000   0.00000   0.00000
   24 0 0 0 0
  0 0 0 0 0
   25   0.00000   0.00000   0.00000
   25 0 0 0 0
  0 0 0 0 0
   26   0.00000   0.00000   1.50000
   26 0 0 0 0
  0 0 0 0 0
   27   0.00000  -0.75000   0.00000
   27 0 0 0 0
  0 0 0 0 0
   28  -0.75000   0.00000   0.00000
   28 0 0 0 0
  0 0 0 0 0
   29   0.00000   0.00000   0.00000
   29 0 0 0 0
  0 0 0 0 0
   30   0.00000   0.00000  -1.50000
   30 0 0 0 0
  0 0 0 0 0
   31   0.00000   0.75000   0.00000
   31 0 0 0 0
  0 0 0 0 0
   32   0.75000   0.00000   0.00000
   32 0 0 0 0
  0 0 0 0 0
0 0 0 0 0
VECTT
    1  0.500 255   0   0 0
    2  0.500 255   0   0 0
    3  0.500 255   0   0 0
    4  0.500 255   0   0 0
    5  0.500 255   0   0 0
    6  0.500 255   0   0 0
    7  0.500 255   0   0 0
    8  0.500 255   0   0 0
    9  0.500 255   0   0 0
   10  0.500 255   0   0 0
   11  0.500 255   0   0 0
   12  0.500 255   0   0 0
   13  0.500 255   0   0 0
   14  0.500 255   0   0 0
   15  0.500 255   0   0 0
   16  0.500 255   0   0 0
   17  0.500 255   0   0 0
   18  0.500 255   0   0 0
   19  0.500 255   0   0 0
   20  0.500 255   0   0 0
   21  0.500 255   0   0 0
   22  0.500 255   0   0 0
   23  0.500 255   0   0 0
   24  0.500 255   0   0 0
   25  0.500 255   0   0 0
   26  0.500 255   0   0 0
   27  0.500 255   0   0 0
   28  0.500 255   0   0 0
   29  0.500 255   0   0 0
   30  0.500 255   0   0 0
   31  0.500 255   0   0 0
   32  0.500 255   0   0 0
0 0 0 0 0
SPLAN
  0   0   0   0
LBLAT
 -1
LBLSP
 -1
DLATM
 -1
DLBND
 -1
DLPLY
 -1
PLN2D
  0   0   0   0
ATOMT
  1         Al  1.4300 129 179 214 129 179 214 204
  2         Ni  1.2500 184 188 190 184 188 190 204
  0 0 0 0 0 0
SCENE
 1.000000  0.000000  0.000000  0.000000
 0.000000  1.000000  0.000000  0.000000
 0.000000  0.000000  1.000000  0.000000
 0.000000  0.000000  0.000000  1.000000
  0.000   0.000
  0.000
  1.000
HBOND 0 2

STYLE
DISPF 37753794
MODEL   0  1  0
SURFS   0  1  1
SECTS  96  1
FORMS   0  1
ATOMS   0  0  1
BONDS   1
POLYS   1
VECTS 1.000000
FORMP
  1  1.0   0   0   0
ATOMP
 24  24   0  50  2.0   0
BONDP
  1  16  0.250  2.000 127 127 127
POLYP
 204 1  1.000 180 180 180
ISURF
  0   0   0   0
TEX3P
  1 0.00000E+000 1.00000E+000
SECTP
  1 0.00000E+000 1.00000E+000 0.00000E+000
HKLPP
  92 0  1.000   0 128 255
UCOLP
   0   1  1.000   0   0   0
COMPS 1
LABEL 1    12  1.000 0
PROJT 0  0.962
BKGRC
 255 255 255
DPTHQ 1 -0.5000  3.5000
LIGHT0 1
 1.000000  0.000000  0.000000  0.000000
 0.000000  1.000000  0.000000  0.000000
 0.000000  0.000000  1.000000  0.000000
 0.000000  0.000000  0.000000  1.000000
 0.000000  0.000000 20.000000  0.000000
 0.000000  0.000000 -1.000000
  26  26  26 255
 179 179 179 255
 255 255 255 255
LIGHT1
 1.000000  0.000000  0.000000  0.000000
 0.000000  1.000000  0.000000  0.000000
 0.000000  0.000000  1.000000  0.000000
 0.000000  0.000000  0.000000  1.000000
 0.000000  0.000000 20.000000  0.000000
 0.000000  0.000000 -1.000000
   0   0   0   0
   0   0   0   0
   0   0   0   0
LIGHT2
 1.000000  0.000000  0.000000  0.000000
 0.000000  1.000000  0.000000  0.000000
 0.000000  0.000000  1.000000  0.000000
 0.000000  0.000000  0.000000  1.000000
 0.000000  0.000000 20.000000  0.000000
 0.000000  0.000000 -1.000000
   0   0   0   0
   0   0   0   0
   0   0   0   0
LIGHT3
 1.000000  0.000000  0.000000  0.000000
 0.000000  1.000000  0.000000  0.000000
 0.000000  0.000000  1.000000  0.000000
 0.000000  0.000000  0.000000  1.000000
 0.000000  0.000000 20.000000  0.000000
 0.000000  0.000000 -1.000000
   0   0   0   0
   0   0   0   0
   0   0   0   0
ATOMM
 204 204 204 255
  25.600
BONDM
 255 255 255 255
 128.000
POLYM
 255 255 255 255
 128.000
SURFM
   0   0   0 255
 128.000
FORMM
 255 255 255 255
 128.000
HKLPM
 255 255 255 255
 128.000
