Sr Ti O 
 1.0000000000000000
    -1.9704539997980890    1.9704539997980890   10.2559429982822259
     1.9704539997980890   -1.9704539997980890   10.2559429982822259
     3.9409079995961780    3.9409079995961780  -20.5118859965644518
 Sr  Ti  O  
   6   4  14
Direct
  0.7038187091369513  0.6647072908630486  0.0000000000000000
  0.5025719819917706  0.4974280180082295 -0.0000000000000000
  0.3352927091369515  0.2961812908630486  0.0000000000000000
  0.6647072908630488  0.7038187091369512  0.5000000000000000
  0.4974280180082296  0.5025719819917704  0.5000000000000000
  0.2961812908630487  0.3352927091369513  0.4999999999999999
  0.9046799065933095  0.8997840934066903 -0.0000000000000000
  0.1002159065933096  0.0953200934066905  0.0000000000000000
  0.8997840934066905  0.9046799065933093  0.5000000000000000
  0.0953200934066907  0.1002159065933096  0.5000000000000000
  0.1002380720997584  0.6002380720997585  0.2500000000000000
  0.1733001963634713  0.2143158036365287  0.0000000000000000
  0.0211939016058502 -0.0211939016058502  0.0000000000000000
  0.4075600720997587  0.9075600720997585  0.2500000000000000
  0.8997619279002416  0.3997619279002416  0.2500000000000000
  0.5924399279002415  0.0924399279002414  0.2500000000000000
  0.7856841963634713  0.8266998036365286  0.0000000000000000
  0.0924399279002414  0.5924399279002414  0.7499999999999999
  0.2143158036365287  0.1733001963634712  0.4999999999999999
 -0.0211939016058502  0.0211939016058502  0.5000000000000000
  0.3997619279002415  0.8997619279002417  0.7500000000000000
  0.9075600720997586  0.4075600720997586  0.7500000000000000
  0.6002380720997583  0.1002380720997584  0.7500000000000000
  0.8266998036365285  0.7856841963634713  0.4999999999999999
