#VESTA_FORMAT_VERSION 3.3.0


CRYSTAL

TITLE
SrTiO3 R mode 0 [R5-(3)] -1.0867 THz

GROUP
1 1 P 1
SYMOP
 0.000000  0.000000  0.000000  1  0  0   0  1  0   0  0  1   1
 -1.0 -1.0 -1.0  0 0 0  0 0 0  0 0 0
TRANM 0
 0.000000  0.000000  0.000000  1  0  0   0  1  0   0  0  1
LTRANSL
 -1
 0.000000  0.000000  0.000000  0.000000  0.000000  0.000000
LORIENT
 -1   0   0   0   0
 1.000000  0.000000  0.000000  1.000000  0.000000  0.000000
 0.000000  0.000000  1.000000  0.000000  0.000000  1.000000
LMATRIX
 1.000000  0.000000  0.000000  0.000000
 0.000000  1.000000  0.000000  0.000000
 0.000000  0.000000  1.000000  0.000000
 0.000000  0.000000  0.000000  1.000000
 0.000000  0.000000  0.000000
CELLP
   7.890260   7.890260   7.890260  90.000000  90.000000  90.000000
  0.000000   0.000000   0.000000   0.000000   0.000000   0.000000
STRUC
  1 Sr        Sr1  1.0000   0.000000   0.000000   0.000000    1a       1
                            0.000000   0.000000   0.000000  0.00
  2 Sr        Sr2  1.0000   0.500000   0.000000   0.000000    1a       1
                            0.000000   0.000000   0.000000  0.00
  3 Sr        Sr3  1.0000   0.000000   0.500000   0.000000    1a       1
                            0.000000   0.000000   0.000000  0.00
  4 Sr        Sr4  1.0000   0.500000   0.500000   0.000000    1a       1
                            0.000000   0.000000   0.000000  0.00
  5 Sr        Sr5  1.0000   0.000000   0.000000   0.500000    1a       1
                            0.000000   0.000000   0.000000  0.00
  6 Sr        Sr6  1.0000   0.500000   0.000000   0.500000    1a       1
                            0.000000   0.000000   0.000000  0.00
  7 Sr        Sr7  1.0000   0.000000   0.500000   0.500000    1a       1
                            0.000000   0.000000   0.000000  0.00
  8 Sr        Sr8  1.0000   0.500000   0.500000   0.500000    1a       1
                            0.000000   0.000000   0.000000  0.00
  9 Ti        Ti1  1.0000   0.250000   0.250000   0.250000    1a       1
                            0.000000   0.000000   0.000000  0.00
  10 Ti        Ti2  1.0000   0.750000   0.250000   0.250000    1a       1
                            0.000000   0.000000   0.000000  0.00
  11 Ti        Ti3  1.0000   0.250000   0.750000   0.250000    1a       1
                            0.000000   0.000000   0.000000  0.00
  12 Ti        Ti4  1.0000   0.750000   0.750000   0.250000    1a       1
                            0.000000   0.000000   0.000000  0.00
  13 Ti        Ti5  1.0000   0.250000   0.250000   0.750000    1a       1
                            0.000000   0.000000   0.000000  0.00
  14 Ti        Ti6  1.0000   0.750000   0.250000   0.750000    1a       1
                            0.000000   0.000000   0.000000  0.00
  15 Ti        Ti7  1.0000   0.250000   0.750000   0.750000    1a       1
                            0.000000   0.000000   0.000000  0.00
  16 Ti        Ti8  1.0000   0.750000   0.750000   0.750000    1a       1
                            0.000000   0.000000   0.000000  0.00
  17 O         O1   1.0000   0.250000   0.000000   0.250000    1a       1
                            0.000000   0.000000   0.000000  0.00
  18 O         O2   1.0000   0.750000   0.000000   0.250000    1a       1
                            0.000000   0.000000   0.000000  0.00
  19 O         O3   1.0000   0.250000   0.500000   0.250000    1a       1
                            0.000000   0.000000   0.000000  0.00
  20 O         O4   1.0000   0.750000   0.500000   0.250000    1a       1
                            0.000000   0.000000   0.000000  0.00
  21 O         O5   1.0000   0.250000   0.000000   0.750000    1a       1
                            0.000000   0.000000   0.000000  0.00
  22 O         O6   1.0000   0.750000   0.000000   0.750000    1a       1
                            0.000000   0.000000   0.000000  0.00
  23 O         O7   1.0000   0.250000   0.500000   0.750000    1a       1
                            0.000000   0.000000   0.000000  0.00
  24 O         O8   1.0000   0.750000   0.500000   0.750000    1a       1
                            0.000000   0.000000   0.000000  0.00
  25 O         O9   1.0000   0.250000   0.250000   0.000000    1a       1
                            0.000000   0.000000   0.000000  0.00
  26 O         O10  1.0000   0.750000   0.250000   0.000000    1a       1
                            0.000000   0.000000   0.000000  0.00
  27 O         O11  1.0000   0.250000   0.750000   0.000000    1a       1
                            0.000000   0.000000   0.000000  0.00
  28 O         O12  1.0000   0.750000   0.750000   0.000000    1a       1
                            0.000000   0.000000   0.000000  0.00
  29 O         O13  1.0000   0.250000   0.250000   0.500000    1a       1
                            0.000000   0.000000   0.000000  0.00
  30 O         O14  1.0000   0.750000   0.250000   0.500000    1a       1
                            0.000000   0.000000   0.000000  0.00
  31 O         O15  1.0000   0.250000   0.750000   0.500000    1a       1
                            0.000000   0.000000   0.000000  0.00
  32 O         O16  1.0000   0.750000   0.750000   0.500000    1a       1
                            0.000000   0.000000   0.000000  0.00
  33 O         O17  1.0000   0.000000   0.250000   0.250000    1a       1
                            0.000000   0.000000   0.000000  0.00
  34 O         O18  1.0000   0.500000   0.250000   0.250000    1a       1
                            0.000000   0.000000   0.000000  0.00
  35 O         O19  1.0000   0.000000   0.750000   0.250000    1a       1
                            0.000000   0.000000   0.000000  0.00
  36 O         O20  1.0000   0.500000   0.750000   0.250000    1a       1
                            0.000000   0.000000   0.000000  0.00
  37 O         O21  1.0000   0.000000   0.250000   0.750000    1a       1
                            0.000000   0.000000   0.000000  0.00
  38 O         O22  1.0000   0.500000   0.250000   0.750000    1a       1
                            0.000000   0.000000   0.000000  0.00
  39 O         O23  1.0000   0.000000   0.750000   0.750000    1a       1
                            0.000000   0.000000   0.000000  0.00
  40 O         O24  1.0000   0.500000   0.750000   0.750000    1a       1
                            0.000000   0.000000   0.000000  0.00
  0 0 0 0 0 0 0
THERI 0
  1        Sr1  1.000000
  2        Sr2  1.000000
  3        Sr3  1.000000
  4        Sr4  1.000000
  5        Sr5  1.000000
  6        Sr6  1.000000
  7        Sr7  1.000000
  8        Sr8  1.000000
  9        Ti1  1.000000
  10        Ti2  1.000000
  11        Ti3  1.000000
  12        Ti4  1.000000
  13        Ti5  1.000000
  14        Ti6  1.000000
  15        Ti7  1.000000
  16        Ti8  1.000000
  17         O1  1.000000
  18         O2  1.000000
  19         O3  1.000000
  20         O4  1.000000
  21         O5  1.000000
  22         O6  1.000000
  23         O7  1.000000
  24         O8  1.000000
  25         O9  1.000000
  26        O10  1.000000
  27        O11  1.000000
  28        O12  1.000000
  29        O13  1.000000
  30        O14  1.000000
  31        O15  1.000000
  32        O16  1.000000
  33        O17  1.000000
  34        O18  1.000000
  35        O19  1.000000
  36        O20  1.000000
  37        O21  1.000000
  38        O22  1.000000
  39        O23  1.000000
  40        O24  1.000000
  0 0 0
SHAPE
  0       0       0       0   0.000000  0   192   192   192   192
BOUND
       0        1         0        1         0        1
  0   0   0   0  0
SBOND
  0 0 0 0
SITET
  1        Sr1  2.1500   0 255  39   0 255  39 204  0
  2        Sr2  2.1500   0 255  39   0 255  39 204  0
  3        Sr3  2.1500   0 255  39   0 255  39 204  0
  4        Sr4  2.1500   0 255  39   0 255  39 204  0
  5        Sr5  2.1500   0 255  39   0 255  39 204  0
  6        Sr6  2.1500   0 255  39   0 255  39 204  0
  7        Sr7  2.1500   0 255  39   0 255  39 204  0
  8        Sr8  2.1500   0 255  39   0 255  39 204  0
  9        Ti1  1.4700 120 202 255 120 202 255 204  0
  10        Ti2  1.4700 120 202 255 120 202 255 204  0
  11        Ti3  1.4700 120 202 255 120 202 255 204  0
  12        Ti4  1.4700 120 202 255 120 202 255 204  0
  13        Ti5  1.4700 120 202 255 120 202 255 204  0
  14        Ti6  1.4700 120 202 255 120 202 255 204  0
  15        Ti7  1.4700 120 202 255 120 202 255 204  0
  16        Ti8  1.4700 120 202 255 120 202 255 204  0
  17         O1  0.7400 255   3   0 255   3   0 204  0
  18         O2  0.7400 255   3   0 255   3   0 204  0
  19         O3  0.7400 255   3   0 255   3   0 204  0
  20         O4  0.7400 255   3   0 255   3   0 204  0
  21         O5  0.7400 255   3   0 255   3   0 204  0
  22         O6  0.7400 255   3   0 255   3   0 204  0
  23         O7  0.7400 255   3   0 255   3   0 204  0
  24         O8  0.7400 255   3   0 255   3   0 204  0
  25         O9  0.7400 255   3   0 255   3   0 204  0
  26        O10  0.7400 255   3   0 255   3   0 204  0
  27        O11  0.7400 255   3   0 255   3   0 204  0
  28        O12  0.7400 255   3   0 255   3   0 204  0
  29        O13  0.7400 255   3   0 255   3   0 204  0
  30        O14  0.7400 255   3   0 255   3   0 204  0
  31        O15  0.7400 255   3   0 255   3   0 204  0
  32        O16  0.7400 255   3   0 255   3   0 204  0
  33        O17  0.7400 255   3   0 255   3   0 204  0
  34        O18  0.7400 255   3   0 255   3   0 204  0
  35        O19  0.7400 255   3   0 255   3   0 204  0
  36        O20  0.7400 255   3   0 255   3   0 204  0
  37        O21  0.7400 255   3   0 255   3   0 204  0
  38        O22  0.7400 255   3   0 255   3   0 204  0
  39        O23  0.7400 255   3   0 255   3   0 204  0
  40        O24  0.7400 255   3   0 255   3   0 204  0
  0 0 0 0 0 0
VECTR
    1   0.00000   0.00000   0.00000
    1 0 0 0 0
  0 0 0 0 0
    2   0.00000   0.00000   0.00000
    2 0 0 0 0
  0 0 0 0 0
    3   0.00000   0.00000   0.00000
    3 0 0 0 0
  0 0 0 0 0
    4   0.00000   0.00000   0.00000
    4 0 0 0 0
  0 0 0 0 0
    5   0.00000   0.00000   0.00000
    5 0 0 0 0
  0 0 0 0 0
    6   0.00000   0.00000   0.00000
    6 0 0 0 0
  0 0 0 0 0
    7   0.00000   0.00000   0.00000
    7 0 0 0 0
  0 0 0 0 0
    8   0.00000   0.00000   0.00000
    8 0 0 0 0
  0 0 0 0 0
    9   0.00000   0.00000   0.00000
    9 0 0 0 0
  0 0 0 0 0
   10   0.00000   0.00000   0.00000
   10 0 0 0 0
  0 0 0 0 0
   11   0.00000   0.00000   0.00000
   11 0 0 0 0
  0 0 0 0 0
   12   0.00000   0.00000   0.00000
   12 0 0 0 0
  0 0 0 0 0
   13   0.00000   0.00000   0.00000
   13 0 0 0 0
  0 0 0 0 0
   14   0.00000   0.00000   0.00000
   14 0 0 0 0
  0 0 0 0 0
   15   0.00000   0.00000   0.00000
   15 0 0 0 0
  0 0 0 0 0
   16   0.00000   0.00000   0.00000
   16 0 0 0 0
  0 0 0 0 0
   17  -1.50000   0.00000   0.00000
   17 0 0 0 0
  0 0 0 0 0
   18   1.50000   0.00000   0.00000
   18 0 0 0 0
  0 0 0 0 0
   19   1.50000   0.00000   0.00000
   19 0 0 0 0
  0 0 0 0 0
   20  -1.50000   0.00000   0.00000
   20 0 0 0 0
  0 0 0 0 0
   21   1.50000   0.00000   0.00000
   21 0 0 0 0
  0 0 0 0 0
   22  -1.50000   0.00000   0.00000
   22 0 0 0 0
  0 0 0 0 0
   23  -1.50000   0.00000   0.00000
   23 0 0 0 0
  0 0 0 0 0
   24   1.50000   0.00000   0.00000
   24 0 0 0 0
  0 0 0 0 0
   25   0.00000   0.00000   0.00000
   25 0 0 0 0
  0 0 0 0 0
   26   0.00000   0.00000   0.00000
   26 0 0 0 0
  0 0 0 0 0
   27   0.00000   0.00000   0.00000
   27 0 0 0 0
  0 0 0 0 0
   28   0.00000   0.00000   0.00000
   28 0 0 0 0
  0 0 0 0 0
   29   0.00000   0.00000   0.00000
   29 0 0 0 0
  0 0 0 0 0
   30   0.00000   0.00000   0.00000
   30 0 0 0 0
  0 0 0 0 0
   31   0.00000   0.00000   0.00000
   31 0 0 0 0
  0 0 0 0 0
   32   0.00000   0.00000   0.00000
   32 0 0 0 0
  0 0 0 0 0
   33   0.00000   1.50000   0.00000
   33 0 0 0 0
  0 0 0 0 0
   34   0.00000  -1.50000   0.00000
   34 0 0 0 0
  0 0 0 0 0
   35   0.00000  -1.50000   0.00000
   35 0 0 0 0
  0 0 0 0 0
   36   0.00000   1.50000   0.00000
   36 0 0 0 0
  0 0 0 0 0
   37   0.00000  -1.50000   0.00000
   37 0 0 0 0
  0 0 0 0 0
   38   0.00000   1.50000   0.00000
   38 0 0 0 0
  0 0 0 0 0
   39   0.00000   1.50000   0.00000
   39 0 0 0 0
  0 0 0 0 0
   40   0.00000  -1.50000   0.00000
   40 0 0 0 0
  0 0 0 0 0
0 0 0 0 0
VECTT
    1  0.500 255   0   0 0
    2  0.500 255   0   0 0
    3  0.500 255   0   0 0
    4  0.500 255   0   0 0
    5  0.500 255   0   0 0
    6  0.500 255   0   0 0
    7  0.500 255   0   0 0
    8  0.500 255   0   0 0
    9  0.500 255   0   0 0
   10  0.500 255   0   0 0
   11  0.500 255   0   0 0
   12  0.500 255   0   0 0
   13  0.500 255   0   0 0
   14  0.500 255   0   0 0
   15  0.500 255   0   0 0
   16  0.500 255   0   0 0
   17  0.500 255   0   0 0
   18  0.500 255   0   0 0
   19  0.500 255   0   0 0
   20  0.500 255   0   0 0
   21  0.500 255   0   0 0
   22  0.500 255   0   0 0
   23  0.500 255   0   0 0
   24  0.500 255   0   0 0
   25  0.500 255   0   0 0
   26  0.500 255   0   0 0
   27  0.500 255   0   0 0
   28  0.500 255   0   0 0
   29  0.500 255   0   0 0
   30  0.500 255   0   0 0
   31  0.500 255   0   0 0
   32  0.500 255   0   0 0
   33  0.500 255   0   0 0
   34  0.500 255   0   0 0
   35  0.500 255   0   0 0
   36  0.500 255   0   0 0
   37  0.500 255   0   0 0
   38  0.500 255   0   0 0
   39  0.500 255   0   0 0
   40  0.500 255   0   0 0
0 0 0 0 0
SPLAN
  0   0   0   0
LBLAT
 -1
LBLSP
 -1
DLATM
 -1
DLBND
 -1
DLPLY
 -1
PLN2D
  0   0   0   0
ATOMT
  1         Sr  2.1500   0 255  39   0 255  39 204
  2         Ti  1.4700 120 202 255 120 202 255 204
  3          O  0.7400 255   3   0 255   3   0 204
  0 0 0 0 0 0
SCENE
 1.000000  0.000000  0.000000  0.000000
 0.000000  1.000000  0.000000  0.000000
 0.000000  0.000000  1.000000  0.000000
 0.000000  0.000000  0.000000  1.000000
  0.000   0.000
  0.000
  1.000
HBOND 0 2

STYLE
DISPF 37753794
MODEL   0  1  0
SURFS   0  1  1
SECTS  96  1
FORMS   0  1
ATOMS   0  0  1
BONDS   1
POLYS   1
VECTS 1.000000
FORMP
  1  1.0   0   0   0
ATOMP
 24  24   0  50  2.0   0
BONDP
  1  16  0.250  2.000 127 127 127
POLYP
 204 1  1.000 180 180 180
ISURF
  0   0   0   0
TEX3P
  1 0.00000E+000 1.00000E+000
SECTP
  1 0.00000E+000 1.00000E+000 0.00000E+000
HKLPP
  92 0  1.000   0 128 255
UCOLP
   0   1  1.000   0   0   0
COMPS 1
LABEL 1    12  1.000 0
PROJT 0  0.962
BKGRC
 255 255 255
DPTHQ 1 -0.5000  3.5000
LIGHT0 1
 1.000000  0.000000  0.000000  0.000000
 0.000000  1.000000  0.000000  0.000000
 0.000000  0.000000  1.000000  0.000000
 0.000000  0.000000  0.000000  1.000000
 0.000000  0.000000 20.000000  0.000000
 0.000000  0.000000 -1.000000
  26  26  26 255
 179 179 179 255
 255 255 255 255
LIGHT1
 1.000000  0.000000  0.000000  0.000000
 0.000000  1.000000  0.000000  0.000000
 0.000000  0.000000  1.000000  0.000000
 0.000000  0.000000  0.000000  1.000000
 0.000000  0.000000 20.000000  0.000000
 0.000000  0.000000 -1.000000
   0   0   0   0
   0   0   0   0
   0   0   0   0
LIGHT2
 1.000000  0.000000  0.000000  0.000000
 0.000000  1.000000  0.000000  0.000000
 0.000000  0.000000  1.000000  0.000000
 0.000000  0.000000  0.000000  1.000000
 0.000000  0.000000 20.000000  0.000000
 0.000000  0.000000 -1.000000
   0   0   0   0
   0   0   0   0
   0   0   0   0
LIGHT3
 1.000000  0.000000  0.000000  0.000000
 0.000000  1.000000  0.000000  0.000000
 0.000000  0.000000  1.000000  0.000000
 0.000000  0.000000  0.000000  1.000000
 0.000000  0.000000 20.000000  0.000000
 0.000000  0.000000 -1.000000
   0   0   0   0
   0   0   0   0
   0   0   0   0
ATOMM
 204 204 204 255
  25.600
BONDM
 255 255 255 255
 128.000
POLYM
 255 255 255 255
 128.000
SURFM
   0   0   0 255
 128.000
FORMM
 255 255 255 255
 128.000
HKLPM
 255 255 255 255
 128.000
