#VESTA_FORMAT_VERSION 3.3.0


CRYSTAL

TITLE
La3Ni2O7 spin basis: X4-(1) X comp0

GROUP
1 1 P 1
SYMOP
 0.000000  0.000000  0.000000  1  0  0   0  1  0   0  0  1   1
 -1.0 -1.0 -1.0  0 0 0  0 0 0  0 0 0
TRANM 0
 0.000000  0.000000  0.000000  1  0  0   0  1  0   0  0  1
LTRANSL
 -1
 0.000000  0.000000  0.000000  0.000000  0.000000  0.000000
LORIENT
 -1   0   0   0   0
 1.000000  0.000000  0.000000  1.000000  0.000000  0.000000
 0.000000  0.000000  1.000000  0.000000  0.000000  1.000000
LMATRIX
 1.000000  0.000000  0.000000  0.000000
 0.000000  1.000000  0.000000  0.000000
 0.000000  0.000000  1.000000  0.000000
 0.000000  0.000000  0.000000  1.000000
 0.000000  0.000000  0.000000
CELLP
   7.586207   7.586207  20.070426  90.000000  90.000000  90.000000
  0.000000   0.000000   0.000000   0.000000   0.000000   0.000000
STRUC
  1 La        La1  1.0000   0.000000   0.000000   0.500000    1a       1
                            0.000000   0.000000   0.000000  0.00
  2 La        La2  1.0000   0.000000   0.000000   0.678749    1a       1
                            0.000000   0.000000   0.000000  0.00
  3 La        La3  1.0000   0.000000   0.000000   0.321251    1a       1
                            0.000000   0.000000   0.000000  0.00
  4 Ni        Ni1  1.0000   0.000000   0.000000   0.097528    1a       1
                            0.000000   0.000000   0.000000  0.00
  5 Ni        Ni2  1.0000   0.000000   0.000000   0.902472    1a       1
                            0.000000   0.000000   0.000000  0.00
  6 O         O1   1.0000   0.000000   0.250000   0.403166    1a       1
                            0.000000   0.000000   0.000000  0.00
  7 O         O2   1.0000   0.250000   0.000000   0.096834    1a       1
                            0.000000   0.000000   0.000000  0.00
  8 O         O3   1.0000   0.250000   0.000000   0.403166    1a       1
                            0.000000   0.000000   0.000000  0.00
  9 O         O4   1.0000   0.000000   0.250000   0.096834    1a       1
                            0.000000   0.000000   0.000000  0.00
  10 O         O5   1.0000   0.000000   0.000000   0.796696    1a       1
                            0.000000   0.000000   0.000000  0.00
  11 O         O6   1.0000   0.000000   0.000000   0.203304    1a       1
                            0.000000   0.000000   0.000000  0.00
  12 O         O7   1.0000   0.000000   0.000000   0.000000    1a       1
                            0.000000   0.000000   0.000000  0.00
  13 La        La4  1.0000   0.500000   0.000000   0.500000    1a       1
                            0.000000   0.000000   0.000000  0.00
  14 La        La5  1.0000   0.500000   0.000000   0.678749    1a       1
                            0.000000   0.000000   0.000000  0.00
  15 La        La6  1.0000   0.500000   0.000000   0.321251    1a       1
                            0.000000   0.000000   0.000000  0.00
  16 Ni        Ni3  1.0000   0.500000   0.000000   0.097528    1a       1
                            0.000000   0.000000   0.000000  0.00
  17 Ni        Ni4  1.0000   0.500000   0.000000   0.902472    1a       1
                            0.000000   0.000000   0.000000  0.00
  18 O         O8   1.0000   0.500000   0.250000   0.403166    1a       1
                            0.000000   0.000000   0.000000  0.00
  19 O         O9   1.0000   0.750000   0.000000   0.096834    1a       1
                            0.000000   0.000000   0.000000  0.00
  20 O         O10  1.0000   0.750000   0.000000   0.403166    1a       1
                            0.000000   0.000000   0.000000  0.00
  21 O         O11  1.0000   0.500000   0.250000   0.096834    1a       1
                            0.000000   0.000000   0.000000  0.00
  22 O         O12  1.0000   0.500000   0.000000   0.796696    1a       1
                            0.000000   0.000000   0.000000  0.00
  23 O         O13  1.0000   0.500000   0.000000   0.203304    1a       1
                            0.000000   0.000000   0.000000  0.00
  24 O         O14  1.0000   0.500000   0.000000   0.000000    1a       1
                            0.000000   0.000000   0.000000  0.00
  25 La        La7  1.0000   0.000000   0.500000   0.500000    1a       1
                            0.000000   0.000000   0.000000  0.00
  26 La        La8  1.0000   0.000000   0.500000   0.678749    1a       1
                            0.000000   0.000000   0.000000  0.00
  27 La        La9  1.0000   0.000000   0.500000   0.321251    1a       1
                            0.000000   0.000000   0.000000  0.00
  28 Ni        Ni5  1.0000   0.000000   0.500000   0.097528    1a       1
                            0.000000   0.000000   0.000000  0.00
  29 Ni        Ni6  1.0000   0.000000   0.500000   0.902472    1a       1
                            0.000000   0.000000   0.000000  0.00
  30 O         O15  1.0000   0.000000   0.750000   0.403166    1a       1
                            0.000000   0.000000   0.000000  0.00
  31 O         O16  1.0000   0.250000   0.500000   0.096834    1a       1
                            0.000000   0.000000   0.000000  0.00
  32 O         O17  1.0000   0.250000   0.500000   0.403166    1a       1
                            0.000000   0.000000   0.000000  0.00
  33 O         O18  1.0000   0.000000   0.750000   0.096834    1a       1
                            0.000000   0.000000   0.000000  0.00
  34 O         O19  1.0000   0.000000   0.500000   0.796696    1a       1
                            0.000000   0.000000   0.000000  0.00
  35 O         O20  1.0000   0.000000   0.500000   0.203304    1a       1
                            0.000000   0.000000   0.000000  0.00
  36 O         O21  1.0000   0.000000   0.500000   0.000000    1a       1
                            0.000000   0.000000   0.000000  0.00
  37 La        La10 1.0000   0.250000   0.250000   0.000000    1a       1
                            0.000000   0.000000   0.000000  0.00
  38 La        La11 1.0000   0.250000   0.250000   0.178749    1a       1
                            0.000000   0.000000   0.000000  0.00
  39 La        La12 1.0000   0.250000   0.250000   0.821251    1a       1
                            0.000000   0.000000   0.000000  0.00
  40 Ni        Ni7  1.0000   0.250000   0.250000   0.597528    1a       1
                            0.000000   0.000000   0.000000  0.00
  41 Ni        Ni8  1.0000   0.250000   0.250000   0.402472    1a       1
                            0.000000   0.000000   0.000000  0.00
  42 O         O22  1.0000   0.250000   0.500000   0.903166    1a       1
                            0.000000   0.000000   0.000000  0.00
  43 O         O23  1.0000   0.500000   0.250000   0.596834    1a       1
                            0.000000   0.000000   0.000000  0.00
  44 O         O24  1.0000   0.500000   0.250000   0.903166    1a       1
                            0.000000   0.000000   0.000000  0.00
  45 O         O25  1.0000   0.250000   0.500000   0.596834    1a       1
                            0.000000   0.000000   0.000000  0.00
  46 O         O26  1.0000   0.250000   0.250000   0.296696    1a       1
                            0.000000   0.000000   0.000000  0.00
  47 O         O27  1.0000   0.250000   0.250000   0.703304    1a       1
                            0.000000   0.000000   0.000000  0.00
  48 O         O28  1.0000   0.250000   0.250000   0.500000    1a       1
                            0.000000   0.000000   0.000000  0.00
  49 La        La13 1.0000   0.500000   0.500000   0.500000    1a       1
                            0.000000   0.000000   0.000000  0.00
  50 La        La14 1.0000   0.500000   0.500000   0.678749    1a       1
                            0.000000   0.000000   0.000000  0.00
  51 La        La15 1.0000   0.500000   0.500000   0.321251    1a       1
                            0.000000   0.000000   0.000000  0.00
  52 Ni        Ni9  1.0000   0.500000   0.500000   0.097528    1a       1
                            0.000000   0.000000   0.000000  0.00
  53 Ni        Ni10 1.0000   0.500000   0.500000   0.902472    1a       1
                            0.000000   0.000000   0.000000  0.00
  54 O         O29  1.0000   0.500000   0.750000   0.403166    1a       1
                            0.000000   0.000000   0.000000  0.00
  55 O         O30  1.0000   0.750000   0.500000   0.096834    1a       1
                            0.000000   0.000000   0.000000  0.00
  56 O         O31  1.0000   0.750000   0.500000   0.403166    1a       1
                            0.000000   0.000000   0.000000  0.00
  57 O         O32  1.0000   0.500000   0.750000   0.096834    1a       1
                            0.000000   0.000000   0.000000  0.00
  58 O         O33  1.0000   0.500000   0.500000   0.796696    1a       1
                            0.000000   0.000000   0.000000  0.00
  59 O         O34  1.0000   0.500000   0.500000   0.203304    1a       1
                            0.000000   0.000000   0.000000  0.00
  60 O         O35  1.0000   0.500000   0.500000   0.000000    1a       1
                            0.000000   0.000000   0.000000  0.00
  61 La        La16 1.0000   0.750000   0.250000   0.000000    1a       1
                            0.000000   0.000000   0.000000  0.00
  62 La        La17 1.0000   0.750000   0.250000   0.178749    1a       1
                            0.000000   0.000000   0.000000  0.00
  63 La        La18 1.0000   0.750000   0.250000   0.821251    1a       1
                            0.000000   0.000000   0.000000  0.00
  64 Ni        Ni11 1.0000   0.750000   0.250000   0.597528    1a       1
                            0.000000   0.000000   0.000000  0.00
  65 Ni        Ni12 1.0000   0.750000   0.250000   0.402472    1a       1
                            0.000000   0.000000   0.000000  0.00
  66 O         O36  1.0000   0.750000   0.500000   0.903166    1a       1
                            0.000000   0.000000   0.000000  0.00
  67 O         O37  1.0000   0.000000   0.250000   0.596834    1a       1
                            0.000000   0.000000   0.000000  0.00
  68 O         O38  1.0000   0.000000   0.250000   0.903166    1a       1
                            0.000000   0.000000   0.000000  0.00
  69 O         O39  1.0000   0.750000   0.500000   0.596834    1a       1
                            0.000000   0.000000   0.000000  0.00
  70 O         O40  1.0000   0.750000   0.250000   0.296696    1a       1
                            0.000000   0.000000   0.000000  0.00
  71 O         O41  1.0000   0.750000   0.250000   0.703304    1a       1
                            0.000000   0.000000   0.000000  0.00
  72 O         O42  1.0000   0.750000   0.250000   0.500000    1a       1
                            0.000000   0.000000   0.000000  0.00
  73 La        La19 1.0000   0.250000   0.750000   0.000000    1a       1
                            0.000000   0.000000   0.000000  0.00
  74 La        La20 1.0000   0.250000   0.750000   0.178749    1a       1
                            0.000000   0.000000   0.000000  0.00
  75 La        La21 1.0000   0.250000   0.750000   0.821251    1a       1
                            0.000000   0.000000   0.000000  0.00
  76 Ni        Ni13 1.0000   0.250000   0.750000   0.597528    1a       1
                            0.000000   0.000000   0.000000  0.00
  77 Ni        Ni14 1.0000   0.250000   0.750000   0.402472    1a       1
                            0.000000   0.000000   0.000000  0.00
  78 O         O43  1.0000   0.250000   0.000000   0.903166    1a       1
                            0.000000   0.000000   0.000000  0.00
  79 O         O44  1.0000   0.500000   0.750000   0.596834    1a       1
                            0.000000   0.000000   0.000000  0.00
  80 O         O45  1.0000   0.500000   0.750000   0.903166    1a       1
                            0.000000   0.000000   0.000000  0.00
  81 O         O46  1.0000   0.250000   0.000000   0.596834    1a       1
                            0.000000   0.000000   0.000000  0.00
  82 O         O47  1.0000   0.250000   0.750000   0.296696    1a       1
                            0.000000   0.000000   0.000000  0.00
  83 O         O48  1.0000   0.250000   0.750000   0.703304    1a       1
                            0.000000   0.000000   0.000000  0.00
  84 O         O49  1.0000   0.250000   0.750000   0.500000    1a       1
                            0.000000   0.000000   0.000000  0.00
  85 La        La22 1.0000   0.750000   0.750000   0.000000    1a       1
                            0.000000   0.000000   0.000000  0.00
  86 La        La23 1.0000   0.750000   0.750000   0.178749    1a       1
                            0.000000   0.000000   0.000000  0.00
  87 La        La24 1.0000   0.750000   0.750000   0.821251    1a       1
                            0.000000   0.000000   0.000000  0.00
  88 Ni        Ni15 1.0000   0.750000   0.750000   0.597528    1a       1
                            0.000000   0.000000   0.000000  0.00
  89 Ni        Ni16 1.0000   0.750000   0.750000   0.402472    1a       1
                            0.000000   0.000000   0.000000  0.00
  90 O         O50  1.0000   0.750000   0.000000   0.903166    1a       1
                            0.000000   0.000000   0.000000  0.00
  91 O         O51  1.0000   0.000000   0.750000   0.596834    1a       1
                            0.000000   0.000000   0.000000  0.00
  92 O         O52  1.0000   0.000000   0.750000   0.903166    1a       1
                            0.000000   0.000000   0.000000  0.00
  93 O         O53  1.0000   0.750000   0.000000   0.596834    1a       1
                            0.000000   0.000000   0.000000  0.00
  94 O         O54  1.0000   0.750000   0.750000   0.296696    1a       1
                            0.000000   0.000000   0.000000  0.00
  95 O         O55  1.0000   0.750000   0.750000   0.703304    1a       1
                            0.000000   0.000000   0.000000  0.00
  96 O         O56  1.0000   0.750000   0.750000   0.500000    1a       1
                            0.000000   0.000000   0.000000  0.00
  0 0 0 0 0 0 0
THERI 0
  1        La1  1.000000
  2        La2  1.000000
  3        La3  1.000000
  4        Ni1  1.000000
  5        Ni2  1.000000
  6         O1  1.000000
  7         O2  1.000000
  8         O3  1.000000
  9         O4  1.000000
  10         O5  1.000000
  11         O6  1.000000
  12         O7  1.000000
  13        La4  1.000000
  14        La5  1.000000
  15        La6  1.000000
  16        Ni3  1.000000
  17        Ni4  1.000000
  18         O8  1.000000
  19         O9  1.000000
  20        O10  1.000000
  21        O11  1.000000
  22        O12  1.000000
  23        O13  1.000000
  24        O14  1.000000
  25        La7  1.000000
  26        La8  1.000000
  27        La9  1.000000
  28        Ni5  1.000000
  29        Ni6  1.000000
  30        O15  1.000000
  31        O16  1.000000
  32        O17  1.000000
  33        O18  1.000000
  34        O19  1.000000
  35        O20  1.000000
  36        O21  1.000000
  37       La10  1.000000
  38       La11  1.000000
  39       La12  1.000000
  40        Ni7  1.000000
  41        Ni8  1.000000
  42        O22  1.000000
  43        O23  1.000000
  44        O24  1.000000
  45        O25  1.000000
  46        O26  1.000000
  47        O27  1.000000
  48        O28  1.000000
  49       La13  1.000000
  50       La14  1.000000
  51       La15  1.000000
  52        Ni9  1.000000
  53       Ni10  1.000000
  54        O29  1.000000
  55        O30  1.000000
  56        O31  1.000000
  57        O32  1.000000
  58        O33  1.000000
  59        O34  1.000000
  60        O35  1.000000
  61       La16  1.000000
  62       La17  1.000000
  63       La18  1.000000
  64       Ni11  1.000000
  65       Ni12  1.000000
  66        O36  1.000000
  67        O37  1.000000
  68        O38  1.000000
  69        O39  1.000000
  70        O40  1.000000
  71        O41  1.000000
  72        O42  1.000000
  73       La19  1.000000
  74       La20  1.000000
  75       La21  1.000000
  76       Ni13  1.000000
  77       Ni14  1.000000
  78        O43  1.000000
  79        O44  1.000000
  80        O45  1.000000
  81        O46  1.000000
  82        O47  1.000000
  83        O48  1.000000
  84        O49  1.000000
  85       La22  1.000000
  86       La23  1.000000
  87       La24  1.000000
  88       Ni15  1.000000
  89       Ni16  1.000000
  90        O50  1.000000
  91        O51  1.000000
  92        O52  1.000000
  93        O53  1.000000
  94        O54  1.000000
  95        O55  1.000000
  96        O56  1.000000
  0 0 0
SHAPE
  0       0       0       0   0.000000  0   192   192   192   192
BOUND
       0        1         0        1         0        1
  0   0   0   0  0
SBOND
  0 0 0 0
SITET
  1        La1  1.8800  90 196  73  90 196  73 204  0
  2        La2  1.8800  90 196  73  90 196  73 204  0
  3        La3  1.8800  90 196  73  90 196  73 204  0
  4        Ni1  1.2500 184 188 190 184 188 190 204  0
  5        Ni2  1.2500 184 188 190 184 188 190 204  0
  6         O1  0.7400 255   3   0 255   3   0 204  0
  7         O2  0.7400 255   3   0 255   3   0 204  0
  8         O3  0.7400 255   3   0 255   3   0 204  0
  9         O4  0.7400 255   3   0 255   3   0 204  0
  10         O5  0.7400 255   3   0 255   3   0 204  0
  11         O6  0.7400 255   3   0 255   3   0 204  0
  12         O7  0.7400 255   3   0 255   3   0 204  0
  13        La4  1.8800  90 196  73  90 196  73 204  0
  14        La5  1.8800  90 196  73  90 196  73 204  0
  15        La6  1.8800  90 196  73  90 196  73 204  0
  16        Ni3  1.2500 184 188 190 184 188 190 204  0
  17        Ni4  1.2500 184 188 190 184 188 190 204  0
  18         O8  0.7400 255   3   0 255   3   0 204  0
  19         O9  0.7400 255   3   0 255   3   0 204  0
  20        O10  0.7400 255   3   0 255   3   0 204  0
  21        O11  0.7400 255   3   0 255   3   0 204  0
  22        O12  0.7400 255   3   0 255   3   0 204  0
  23        O13  0.7400 255   3   0 255   3   0 204  0
  24        O14  0.7400 255   3   0 255   3   0 204  0
  25        La7  1.8800  90 196  73  90 196  73 204  0
  26        La8  1.8800  90 196  73  90 196  73 204  0
  27        La9  1.8800  90 196  73  90 196  73 204  0
  28        Ni5  1.2500 184 188 190 184 188 190 204  0
  29        Ni6  1.2500 184 188 190 184 188 190 204  0
  30        O15  0.7400 255   3   0 255   3   0 204  0
  31        O16  0.7400 255   3   0 255   3   0 204  0
  32        O17  0.7400 255   3   0 255   3   0 204  0
  33        O18  0.7400 255   3   0 255   3   0 204  0
  34        O19  0.7400 255   3   0 255   3   0 204  0
  35        O20  0.7400 255   3   0 255   3   0 204  0
  36        O21  0.7400 255   3   0 255   3   0 204  0
  37       La10  1.8800  90 196  73  90 196  73 204  0
  38       La11  1.8800  90 196  73  90 196  73 204  0
  39       La12  1.8800  90 196  73  90 196  73 204  0
  40        Ni7  1.2500 184 188 190 184 188 190 204  0
  41        Ni8  1.2500 184 188 190 184 188 190 204  0
  42        O22  0.7400 255   3   0 255   3   0 204  0
  43        O23  0.7400 255   3   0 255   3   0 204  0
  44        O24  0.7400 255   3   0 255   3   0 204  0
  45        O25  0.7400 255   3   0 255   3   0 204  0
  46        O26  0.7400 255   3   0 255   3   0 204  0
  47        O27  0.7400 255   3   0 255   3   0 204  0
  48        O28  0.7400 255   3   0 255   3   0 204  0
  49       La13  1.8800  90 196  73  90 196  73 204  0
  50       La14  1.8800  90 196  73  90 196  73 204  0
  51       La15  1.8800  90 196  73  90 196  73 204  0
  52        Ni9  1.2500 184 188 190 184 188 190 204  0
  53       Ni10  1.2500 184 188 190 184 188 190 204  0
  54        O29  0.7400 255   3   0 255   3   0 204  0
  55        O30  0.7400 255   3   0 255   3   0 204  0
  56        O31  0.7400 255   3   0 255   3   0 204  0
  57        O32  0.7400 255   3   0 255   3   0 204  0
  58        O33  0.7400 255   3   0 255   3   0 204  0
  59        O34  0.7400 255   3   0 255   3   0 204  0
  60        O35  0.7400 255   3   0 255   3   0 204  0
  61       La16  1.8800  90 196  73  90 196  73 204  0
  62       La17  1.8800  90 196  73  90 196  73 204  0
  63       La18  1.8800  90 196  73  90 196  73 204  0
  64       Ni11  1.2500 184 188 190 184 188 190 204  0
  65       Ni12  1.2500 184 188 190 184 188 190 204  0
  66        O36  0.7400 255   3   0 255   3   0 204  0
  67        O37  0.7400 255   3   0 255   3   0 204  0
  68        O38  0.7400 255   3   0 255   3   0 204  0
  69        O39  0.7400 255   3   0 255   3   0 204  0
  70        O40  0.7400 255   3   0 255   3   0 204  0
  71        O41  0.7400 255   3   0 255   3   0 204  0
  72        O42  0.7400 255   3   0 255   3   0 204  0
  73       La19  1.8800  90 196  73  90 196  73 204  0
  74       La20  1.8800  90 196  73  90 196  73 204  0
  75       La21  1.8800  90 196  73  90 196  73 204  0
  76       Ni13  1.2500 184 188 190 184 188 190 204  0
  77       Ni14  1.2500 184 188 190 184 188 190 204  0
  78        O43  0.7400 255   3   0 255   3   0 204  0
  79        O44  0.7400 255   3   0 255   3   0 204  0
  80        O45  0.7400 255   3   0 255   3   0 204  0
  81        O46  0.7400 255   3   0 255   3   0 204  0
  82        O47  0.7400 255   3   0 255   3   0 204  0
  83        O48  0.7400 255   3   0 255   3   0 204  0
  84        O49  0.7400 255   3   0 255   3   0 204  0
  85       La22  1.8800  90 196  73  90 196  73 204  0
  86       La23  1.8800  90 196  73  90 196  73 204  0
  87       La24  1.8800  90 196  73  90 196  73 204  0
  88       Ni15  1.2500 184 188 190 184 188 190 204  0
  89       Ni16  1.2500 184 188 190 184 188 190 204  0
  90        O50  0.7400 255   3   0 255   3   0 204  0
  91        O51  0.7400 255   3   0 255   3   0 204  0
  92        O52  0.7400 255   3   0 255   3   0 204  0
  93        O53  0.7400 255   3   0 255   3   0 204  0
  94        O54  0.7400 255   3   0 255   3   0 204  0
  95        O55  0.7400 255   3   0 255   3   0 204  0
  96        O56  0.7400 255   3   0 255   3   0 204  0
  0 0 0 0 0 0
VECTR
    1   0.00000   0.00000   0.00000
    1 0 0 0 0
  0 0 0 0 0
    2   0.00000   0.00000   0.00000
    2 0 0 0 0
  0 0 0 0 0
    3   0.00000   0.00000   0.00000
    3 0 0 0 0
  0 0 0 0 0
    4   1.06066   1.06066   0.00000
    4 0 0 0 0
  0 0 0 0 0
    5  -1.06066  -1.06066   0.00000
    5 0 0 0 0
  0 0 0 0 0
    6   0.00000   0.00000   0.00000
    6 0 0 0 0
  0 0 0 0 0
    7   0.00000   0.00000   0.00000
    7 0 0 0 0
  0 0 0 0 0
    8   0.00000   0.00000   0.00000
    8 0 0 0 0
  0 0 0 0 0
    9   0.00000   0.00000   0.00000
    9 0 0 0 0
  0 0 0 0 0
   10   0.00000   0.00000   0.00000
   10 0 0 0 0
  0 0 0 0 0
   11   0.00000   0.00000   0.00000
   11 0 0 0 0
  0 0 0 0 0
   12   0.00000   0.00000   0.00000
   12 0 0 0 0
  0 0 0 0 0
   13   0.00000   0.00000   0.00000
   13 0 0 0 0
  0 0 0 0 0
   14   0.00000   0.00000   0.00000
   14 0 0 0 0
  0 0 0 0 0
   15   0.00000   0.00000   0.00000
   15 0 0 0 0
  0 0 0 0 0
   16  -1.06066  -1.06066   0.00000
   16 0 0 0 0
  0 0 0 0 0
   17   1.06066   1.06066   0.00000
   17 0 0 0 0
  0 0 0 0 0
   18   0.00000   0.00000   0.00000
   18 0 0 0 0
  0 0 0 0 0
   19   0.00000   0.00000   0.00000
   19 0 0 0 0
  0 0 0 0 0
   20   0.00000   0.00000   0.00000
   20 0 0 0 0
  0 0 0 0 0
   21   0.00000   0.00000   0.00000
   21 0 0 0 0
  0 0 0 0 0
   22   0.00000   0.00000   0.00000
   22 0 0 0 0
  0 0 0 0 0
   23   0.00000   0.00000   0.00000
   23 0 0 0 0
  0 0 0 0 0
   24   0.00000   0.00000   0.00000
   24 0 0 0 0
  0 0 0 0 0
   25   0.00000   0.00000   0.00000
   25 0 0 0 0
  0 0 0 0 0
   26   0.00000   0.00000   0.00000
   26 0 0 0 0
  0 0 0 0 0
   27   0.00000   0.00000   0.00000
   27 0 0 0 0
  0 0 0 0 0
   28  -1.06066  -1.06066   0.00000
   28 0 0 0 0
  0 0 0 0 0
   29   1.06066   1.06066   0.00000
   29 0 0 0 0
  0 0 0 0 0
   30   0.00000   0.00000   0.00000
   30 0 0 0 0
  0 0 0 0 0
   31   0.00000   0.00000   0.00000
   31 0 0 0 0
  0 0 0 0 0
   32   0.00000   0.00000   0.00000
   32 0 0 0 0
  0 0 0 0 0
   33   0.00000   0.00000   0.00000
   33 0 0 0 0
  0 0 0 0 0
   34   0.00000   0.00000   0.00000
   34 0 0 0 0
  0 0 0 0 0
   35   0.00000   0.00000   0.00000
   35 0 0 0 0
  0 0 0 0 0
   36   0.00000   0.00000   0.00000
   36 0 0 0 0
  0 0 0 0 0
   37   0.00000   0.00000   0.00000
   37 0 0 0 0
  0 0 0 0 0
   38   0.00000   0.00000   0.00000
   38 0 0 0 0
  0 0 0 0 0
   39   0.00000   0.00000   0.00000
   39 0 0 0 0
  0 0 0 0 0
   40   1.06066   1.06066   0.00000
   40 0 0 0 0
  0 0 0 0 0
   41  -1.06066  -1.06066   0.00000
   41 0 0 0 0
  0 0 0 0 0
   42   0.00000   0.00000   0.00000
   42 0 0 0 0
  0 0 0 0 0
   43   0.00000   0.00000   0.00000
   43 0 0 0 0
  0 0 0 0 0
   44   0.00000   0.00000   0.00000
   44 0 0 0 0
  0 0 0 0 0
   45   0.00000   0.00000   0.00000
   45 0 0 0 0
  0 0 0 0 0
   46   0.00000   0.00000   0.00000
   46 0 0 0 0
  0 0 0 0 0
   47   0.00000   0.00000   0.00000
   47 0 0 0 0
  0 0 0 0 0
   48   0.00000   0.00000   0.00000
   48 0 0 0 0
  0 0 0 0 0
   49   0.00000   0.00000   0.00000
   49 0 0 0 0
  0 0 0 0 0
   50   0.00000   0.00000   0.00000
   50 0 0 0 0
  0 0 0 0 0
   51   0.00000   0.00000   0.00000
   51 0 0 0 0
  0 0 0 0 0
   52   1.06066   1.06066   0.00000
   52 0 0 0 0
  0 0 0 0 0
   53  -1.06066  -1.06066   0.00000
   53 0 0 0 0
  0 0 0 0 0
   54   0.00000   0.00000   0.00000
   54 0 0 0 0
  0 0 0 0 0
   55   0.00000   0.00000   0.00000
   55 0 0 0 0
  0 0 0 0 0
   56   0.00000   0.00000   0.00000
   56 0 0 0 0
  0 0 0 0 0
   57   0.00000   0.00000   0.00000
   57 0 0 0 0
  0 0 0 0 0
   58   0.00000   0.00000   0.00000
   58 0 0 0 0
  0 0 0 0 0
   59   0.00000   0.00000   0.00000
   59 0 0 0 0
  0 0 0 0 0
   60   0.00000   0.00000   0.00000
   60 0 0 0 0
  0 0 0 0 0
   61   0.00000   0.00000   0.00000
   61 0 0 0 0
  0 0 0 0 0
   62   0.00000   0.00000   0.00000
   62 0 0 0 0
  0 0 0 0 0
   63   0.00000   0.00000   0.00000
   63 0 0 0 0
  0 0 0 0 0
   64  -1.06066  -1.06066   0.00000
   64 0 0 0 0
  0 0 0 0 0
   65   1.06066   1.06066   0.00000
   65 0 0 0 0
  0 0 0 0 0
   66   0.00000   0.00000   0.00000
   66 0 0 0 0
  0 0 0 0 0
   67   0.00000   0.00000   0.00000
   67 0 0 0 0
  0 0 0 0 0
   68   0.00000   0.00000   0.00000
   68 0 0 0 0
  0 0 0 0 0
   69   0.00000   0.00000   0.00000
   69 0 0 0 0
  0 0 0 0 0
   70   0.00000   0.00000   0.00000
   70 0 0 0 0
  0 0 0 0 0
   71   0.00000   0.00000   0.00000
   71 0 0 0 0
  0 0 0 0 0
   72   0.00000   0.00000   0.00000
   72 0 0 0 0
  0 0 0 0 0
   73   0.00000   0.00000   0.00000
   73 0 0 0 0
  0 0 0 0 0
   74   0.00000   0.00000   0.00000
   74 0 0 0 0
  0 0 0 0 0
   75   0.00000   0.00000   0.00000
   75 0 0 0 0
  0 0 0 0 0
   76  -1.06066  -1.06066   0.00000
   76 0 0 0 0
  0 0 0 0 0
   77   1.06066   1.06066   0.00000
   77 0 0 0 0
  0 0 0 0 0
   78   0.00000   0.00000   0.00000
   78 0 0 0 0
  0 0 0 0 0
   79   0.00000   0.00000   0.00000
   79 0 0 0 0
  0 0 0 0 0
   80   0.00000   0.00000   0.00000
   80 0 0 0 0
  0 0 0 0 0
   81   0.00000   0.00000   0.00000
   81 0 0 0 0
  0 0 0 0 0
   82   0.00000   0.00000   0.00000
   82 0 0 0 0
  0 0 0 0 0
   83   0.00000   0.00000   0.00000
   83 0 0 0 0
  0 0 0 0 0
   84   0.00000   0.00000   0.00000
   84 0 0 0 0
  0 0 0 0 0
   85   0.00000   0.00000   0.00000
   85 0 0 0 0
  0 0 0 0 0
   86   0.00000   0.00000   0.00000
   86 0 0 0 0
  0 0 0 0 0
   87   0.00000   0.00000   0.00000
   87 0 0 0 0
  0 0 0 0 0
   88   1.06066   1.06066   0.00000
   88 0 0 0 0
  0 0 0 0 0
   89  -1.06066  -1.06066   0.00000
   89 0 0 0 0
  0 0 0 0 0
   90   0.00000   0.00000   0.00000
   90 0 0 0 0
  0 0 0 0 0
   91   0.00000   0.00000   0.00000
   91 0 0 0 0
  0 0 0 0 0
   92   0.00000   0.00000   0.00000
   92 0 0 0 0
  0 0 0 0 0
   93   0.00000   0.00000   0.00000
   93 0 0 0 0
  0 0 0 0 0
   94   0.00000   0.00000   0.00000
   94 0 0 0 0
  0 0 0 0 0
   95   0.00000   0.00000   0.00000
   95 0 0 0 0
  0 0 0 0 0
   96   0.00000   0.00000   0.00000
   96 0 0 0 0
  0 0 0 0 0
0 0 0 0 0
VECTT
    1  0.500 255   0   0 0
    2  0.500 255   0   0 0
    3  0.500 255   0   0 0
    4  0.500 255   0   0 0
    5  0.500 255   0   0 0
    6  0.500 255   0   0 0
    7  0.500 255   0   0 0
    8  0.500 255   0   0 0
    9  0.500 255   0   0 0
   10  0.500 255   0   0 0
   11  0.500 255   0   0 0
   12  0.500 255   0   0 0
   13  0.500 255   0   0 0
   14  0.500 255   0   0 0
   15  0.500 255   0   0 0
   16  0.500 255   0   0 0
   17  0.500 255   0   0 0
   18  0.500 255   0   0 0
   19  0.500 255   0   0 0
   20  0.500 255   0   0 0
   21  0.500 255   0   0 0
   22  0.500 255   0   0 0
   23  0.500 255   0   0 0
   24  0.500 255   0   0 0
   25  0.500 255   0   0 0
   26  0.500 255   0   0 0
   27  0.500 255   0   0 0
   28  0.500 255   0   0 0
   29  0.500 255   0   0 0
   30  0.500 255   0   0 0
   31  0.500 255   0   0 0
   32  0.500 255   0   0 0
   33  0.500 255   0   0 0
   34  0.500 255   0   0 0
   35  0.500 255   0   0 0
   36  0.500 255   0   0 0
   37  0.500 255   0   0 0
   38  0.500 255   0   0 0
   39  0.500 255   0   0 0
   40  0.500 255   0   0 0
   41  0.500 255   0   0 0
   42  0.500 255   0   0 0
   43  0.500 255   0   0 0
   44  0.500 255   0   0 0
   45  0.500 255   0   0 0
   46  0.500 255   0   0 0
   47  0.500 255   0   0 0
   48  0.500 255   0   0 0
   49  0.500 255   0   0 0
   50  0.500 255   0   0 0
   51  0.500 255   0   0 0
   52  0.500 255   0   0 0
   53  0.500 255   0   0 0
   54  0.500 255   0   0 0
   55  0.500 255   0   0 0
   56  0.500 255   0   0 0
   57  0.500 255   0   0 0
   58  0.500 255   0   0 0
   59  0.500 255   0   0 0
   60  0.500 255   0   0 0
   61  0.500 255   0   0 0
   62  0.500 255   0   0 0
   63  0.500 255   0   0 0
   64  0.500 255   0   0 0
   65  0.500 255   0   0 0
   66  0.500 255   0   0 0
   67  0.500 255   0   0 0
   68  0.500 255   0   0 0
   69  0.500 255   0   0 0
   70  0.500 255   0   0 0
   71  0.500 255   0   0 0
   72  0.500 255   0   0 0
   73  0.500 255   0   0 0
   74  0.500 255   0   0 0
   75  0.500 255   0   0 0
   76  0.500 255   0   0 0
   77  0.500 255   0   0 0
   78  0.500 255   0   0 0
   79  0.500 255   0   0 0
   80  0.500 255   0   0 0
   81  0.500 255   0   0 0
   82  0.500 255   0   0 0
   83  0.500 255   0   0 0
   84  0.500 255   0   0 0
   85  0.500 255   0   0 0
   86  0.500 255   0   0 0
   87  0.500 255   0   0 0
   88  0.500 255   0   0 0
   89  0.500 255   0   0 0
   90  0.500 255   0   0 0
   91  0.500 255   0   0 0
   92  0.500 255   0   0 0
   93  0.500 255   0   0 0
   94  0.500 255   0   0 0
   95  0.500 255   0   0 0
   96  0.500 255   0   0 0
0 0 0 0 0
SPLAN
  0   0   0   0
LBLAT
 -1
LBLSP
 -1
DLATM
 -1
DLBND
 -1
DLPLY
 -1
PLN2D
  0   0   0   0
ATOMT
  1         La  1.8800  90 196  73  90 196  73 204
  2         Ni  1.2500 184 188 190 184 188 190 204
  3          O  0.7400 255   3   0 255   3   0 204
  0 0 0 0 0 0
SCENE
 1.000000  0.000000  0.000000  0.000000
 0.000000  1.000000  0.000000  0.000000
 0.000000  0.000000  1.000000  0.000000
 0.000000  0.000000  0.000000  1.000000
  0.000   0.000
  0.000
  1.000
HBOND 0 2

STYLE
DISPF 37753794
MODEL   0  1  0
SURFS   0  1  1
SECTS  96  1
FORMS   0  1
ATOMS   0  0  1
BONDS   1
POLYS   1
VECTS 1.000000
FORMP
  1  1.0   0   0   0
ATOMP
 24  24   0  50  2.0   0
BONDP
  1  16  0.250  2.000 127 127 127
POLYP
 204 1  1.000 180 180 180
ISURF
  0   0   0   0
TEX3P
  1 0.00000E+000 1.00000E+000
SECTP
  1 0.00000E+000 1.00000E+000 0.00000E+000
HKLPP
  92 0  1.000   0 128 255
UCOLP
   0   1  1.000   0   0   0
COMPS 1
LABEL 1    12  1.000 0
PROJT 0  0.962
BKGRC
 255 255 255
DPTHQ 1 -0.5000  3.5000
LIGHT0 1
 1.000000  0.000000  0.000000  0.000000
 0.000000  1.000000  0.000000  0.000000
 0.000000  0.000000  1.000000  0.000000
 0.000000  0.000000  0.000000  1.000000
 0.000000  0.000000 20.000000  0.000000
 0.000000  0.000000 -1.000000
  26  26  26 255
 179 179 179 255
 255 255 255 255
LIGHT1
 1.000000  0.000000  0.000000  0.000000
 0.000000  1.000000  0.000000  0.000000
 0.000000  0.000000  1.000000  0.000000
 0.000000  0.000000  0.000000  1.000000
 0.000000  0.000000 20.000000  0.000000
 0.000000  0.000000 -1.000000
   0   0   0   0
   0   0   0   0
   0   0   0   0
LIGHT2
 1.000000  0.000000  0.000000  0.000000
 0.000000  1.000000  0.000000  0.000000
 0.000000  0.000000  1.000000  0.000000
 0.000000  0.000000  0.000000  1.000000
 0.000000  0.000000 20.000000  0.000000
 0.000000  0.000000 -1.000000
   0   0   0   0
   0   0   0   0
   0   0   0   0
LIGHT3
 1.000000  0.000000  0.000000  0.000000
 0.000000  1.000000  0.000000  0.000000
 0.000000  0.000000  1.000000  0.000000
 0.000000  0.000000  0.000000  1.000000
 0.000000  0.000000 20.000000  0.000000
 0.000000  0.000000 -1.000000
   0   0   0   0
   0   0   0   0
   0   0   0   0
ATOMM
 204 204 204 255
  25.600
BONDM
 255 255 255 255
 128.000
POLYM
 255 255 255 255
 128.000
SURFM
   0   0   0 255
 128.000
FORMM
 255 255 255 255
 128.000
HKLPM
 255 255 255 255
 128.000
