generated by phonopy
   1.0
    16.2783599999999993    0.0000000000000000    0.0000000000000000
     0.0000000000000000   16.2783599999999993    0.0000000000000000
     0.0000000000000000    0.0000000000000000   16.2783599999999993
Sc F
  64  192
Direct
  0.0000000000000000  0.0000000000000000  0.0000000000000000
  0.2500000000000000  0.0000000000000000  0.0000000000000000
  0.5000000000000000  0.0000000000000000  0.0000000000000000
  0.7500000000000000  0.0000000000000000  0.0000000000000000
  0.0000000000000000  0.2500000000000000  0.0000000000000000
  0.2500000000000000  0.2500000000000000  0.0000000000000000
  0.5000000000000000  0.2500000000000000  0.0000000000000000
  0.7500000000000000  0.2500000000000000  0.0000000000000000
  0.0000000000000000  0.5000000000000000  0.0000000000000000
  0.2500000000000000  0.5000000000000000  0.0000000000000000
  0.5000000000000000  0.5000000000000000  0.0000000000000000
  0.7500000000000000  0.5000000000000000  0.0000000000000000
  0.0000000000000000  0.7500000000000000  0.0000000000000000
  0.2500000000000000  0.7500000000000000  0.0000000000000000
  0.5000000000000000  0.7500000000000000  0.0000000000000000
  0.7500000000000000  0.7500000000000000  0.0000000000000000
  0.0000000000000000  0.0000000000000000  0.2500000000000000
  0.2500000000000000  0.0000000000000000  0.2500000000000000
  0.5000000000000000  0.0000000000000000  0.2500000000000000
  0.7500000000000000  0.0000000000000000  0.2500000000000000
  0.0000000000000000  0.2500000000000000  0.2500000000000000
  0.2500000000000000  0.2500000000000000  0.2500000000000000
  0.5000000000000000  0.2500000000000000  0.2500000000000000
  0.7500000000000000  0.2500000000000000  0.2500000000000000
  0.0000000000000000  0.5000000000000000  0.2500000000000000
  0.2500000000000000  0.5000000000000000  0.2500000000000000
  0.5000000000000000  0.5000000000000000  0.2500000000000000
  0.7500000000000000  0.5000000000000000  0.2500000000000000
  0.0000000000000000  0.7500000000000000  0.2500000000000000
  0.2500000000000000  0.7500000000000000  0.2500000000000000
  0.5000000000000000  0.7500000000000000  0.2500000000000000
  0.7500000000000000  0.7500000000000000  0.2500000000000000
  0.0000000000000000  0.0000000000000000  0.5000000000000000
  0.2500000000000000  0.0000000000000000  0.5000000000000000
  0.5000000000000000  0.0000000000000000  0.5000000000000000
  0.7500000000000000  0.0000000000000000  0.5000000000000000
  0.0000000000000000  0.2500000000000000  0.5000000000000000
  0.2500000000000000  0.2500000000000000  0.5000000000000000
  0.5000000000000000  0.2500000000000000  0.5000000000000000
  0.7500000000000000  0.2500000000000000  0.5000000000000000
  0.0000000000000000  0.5000000000000000  0.5000000000000000
  0.2500000000000000  0.5000000000000000  0.5000000000000000
  0.5000000000000000  0.5000000000000000  0.5000000000000000
  0.7500000000000000  0.5000000000000000  0.5000000000000000
  0.0000000000000000  0.7500000000000000  0.5000000000000000
  0.2500000000000000  0.7500000000000000  0.5000000000000000
  0.5000000000000000  0.7500000000000000  0.5000000000000000
  0.7500000000000000  0.7500000000000000  0.5000000000000000
  0.0000000000000000  0.0000000000000000  0.7500000000000000
  0.2500000000000000  0.0000000000000000  0.7500000000000000
  0.5000000000000000  0.0000000000000000  0.7500000000000000
  0.7500000000000000  0.0000000000000000  0.7500000000000000
  0.0000000000000000  0.2500000000000000  0.7500000000000000
  0.2500000000000000  0.2500000000000000  0.7500000000000000
  0.5000000000000000  0.2500000000000000  0.7500000000000000
  0.7500000000000000  0.2500000000000000  0.7500000000000000
  0.0000000000000000  0.5000000000000000  0.7500000000000000
  0.2500000000000000  0.5000000000000000  0.7500000000000000
  0.5000000000000000  0.5000000000000000  0.7500000000000000
  0.7500000000000000  0.5000000000000000  0.7500000000000000
  0.0000000000000000  0.7500000000000000  0.7500000000000000
  0.2500000000000000  0.7500000000000000  0.7500000000000000
  0.5000000000000000  0.7500000000000000  0.7500000000000000
  0.7500000000000000  0.7500000000000000  0.7500000000000000
  0.0000000000000000  0.1250000000000000  0.0000000000000000
  0.2500000000000000  0.1250000000000000  0.0000000000000000
  0.5000000000000000  0.1250000000000000  0.0000000000000000
  0.7500000000000000  0.1250000000000000  0.0000000000000000
  0.0000000000000000  0.3750000000000000  0.0000000000000000
  0.2500000000000000  0.3750000000000000  0.0000000000000000
  0.5000000000000000  0.3750000000000000  0.0000000000000000
  0.7500000000000000  0.3750000000000000  0.0000000000000000
  0.0000000000000000  0.6250000000000000  0.0000000000000000
  0.2500000000000000  0.6250000000000000  0.0000000000000000
  0.5000000000000000  0.6250000000000000  0.0000000000000000
  0.7500000000000000  0.6250000000000000  0.0000000000000000
  0.0000000000000000  0.8750000000000000  0.0000000000000000
  0.2500000000000000  0.8750000000000000  0.0000000000000000
  0.5000000000000000  0.8750000000000000  0.0000000000000000
  0.7500000000000000  0.8750000000000000  0.0000000000000000
  0.0000000000000000  0.1250000000000000  0.2500000000000000
  0.2500000000000000  0.1250000000000000  0.2500000000000000
  0.5000000000000000  0.1250000000000000  0.2500000000000000
  0.7500000000000000  0.1250000000000000  0.2500000000000000
  0.0000000000000000  0.3750000000000000  0.2500000000000000
  0.2500000000000000  0.3750000000000000  0.2500000000000000
  0.5000000000000000  0.3750000000000000  0.2500000000000000
  0.7500000000000000  0.3750000000000000  0.2500000000000000
  0.0000000000000000  0.6250000000000000  0.2500000000000000
  0.2500000000000000  0.6250000000000000  0.2500000000000000
  0.5000000000000000  0.6250000000000000  0.2500000000000000
  0.7500000000000000  0.6250000000000000  0.2500000000000000
  0.0000000000000000  0.8750000000000000  0.2500000000000000
  0.2500000000000000  0.8750000000000000  0.2500000000000000
  0.5000000000000000  0.8750000000000000  0.2500000000000000
  0.7500000000000000  0.8750000000000000  0.2500000000000000
  0.0000000000000000  0.1250000000000000  0.5000000000000000
  0.2500000000000000  0.1250000000000000  0.5000000000000000
  0.5000000000000000  0.1250000000000000  0.5000000000000000
  0.7500000000000000  0.1250000000000000  0.5000000000000000
  0.0000000000000000  0.3750000000000000  0.5000000000000000
  0.2500000000000000  0.3750000000000000  0.5000000000000000
  0.5000000000000000  0.3750000000000000  0.5000000000000000
  0.7500000000000000  0.3750000000000000  0.5000000000000000
  0.0000000000000000  0.6250000000000000  0.5000000000000000
  0.2500000000000000  0.6250000000000000  0.5000000000000000
  0.5000000000000000  0.6250000000000000  0.5000000000000000
  0.7500000000000000  0.6250000000000000  0.5000000000000000
  0.0000000000000000  0.8750000000000000  0.5000000000000000
  0.2500000000000000  0.8750000000000000  0.5000000000000000
  0.5000000000000000  0.8750000000000000  0.5000000000000000
  0.7500000000000000  0.8750000000000000  0.5000000000000000
  0.0000000000000000  0.1250000000000000  0.7500000000000000
  0.2500000000000000  0.1250000000000000  0.7500000000000000
  0.5000000000000000  0.1250000000000000  0.7500000000000000
  0.7500000000000000  0.1250000000000000  0.7500000000000000
  0.0000000000000000  0.3750000000000000  0.7500000000000000
  0.2500000000000000  0.3750000000000000  0.7500000000000000
  0.5000000000000000  0.3750000000000000  0.7500000000000000
  0.7500000000000000  0.3750000000000000  0.7500000000000000
  0.0000000000000000  0.6250000000000000  0.7500000000000000
  0.2500000000000000  0.6250000000000000  0.7500000000000000
  0.5000000000000000  0.6250000000000000  0.7500000000000000
  0.7500000000000000  0.6250000000000000  0.7500000000000000
  0.0000000000000000  0.8750000000000000  0.7500000000000000
  0.2500000000000000  0.8750000000000000  0.7500000000000000
  0.5000000000000000  0.8750000000000000  0.7500000000000000
  0.7500000000000000  0.8750000000000000  0.7500000000000000
  0.1250000000000000  0.0000000000000000  0.0000000000000000
  0.3750000000000000  0.0000000000000000  0.0000000000000000
  0.6250000000000000  0.0000000000000000  0.0000000000000000
  0.8750000000000000  0.0000000000000000  0.0000000000000000
  0.1250000000000000  0.2500000000000000  0.0000000000000000
  0.3750000000000000  0.2500000000000000  0.0000000000000000
  0.6250000000000000  0.2500000000000000  0.0000000000000000
  0.8750000000000000  0.2500000000000000  0.0000000000000000
  0.1250000000000000  0.5000000000000000  0.0000000000000000
  0.3750000000000000  0.5000000000000000  0.0000000000000000
  0.6250000000000000  0.5000000000000000  0.0000000000000000
  0.8750000000000000  0.5000000000000000  0.0000000000000000
  0.1250000000000000  0.7500000000000000  0.0000000000000000
  0.3750000000000000  0.7500000000000000  0.0000000000000000
  0.6250000000000000  0.7500000000000000  0.0000000000000000
  0.8750000000000000  0.7500000000000000  0.0000000000000000
  0.1250000000000000  0.0000000000000000  0.2500000000000000
  0.3750000000000000  0.0000000000000000  0.2500000000000000
  0.6250000000000000  0.0000000000000000  0.2500000000000000
  0.8750000000000000  0.0000000000000000  0.2500000000000000
  0.1250000000000000  0.2500000000000000  0.2500000000000000
  0.3750000000000000  0.2500000000000000  0.2500000000000000
  0.6250000000000000  0.2500000000000000  0.2500000000000000
  0.8750000000000000  0.2500000000000000  0.2500000000000000
  0.1250000000000000  0.5000000000000000  0.2500000000000000
  0.3750000000000000  0.5000000000000000  0.2500000000000000
  0.6250000000000000  0.5000000000000000  0.2500000000000000
  0.8750000000000000  0.5000000000000000  0.2500000000000000
  0.1250000000000000  0.7500000000000000  0.2500000000000000
  0.3750000000000000  0.7500000000000000  0.2500000000000000
  0.6250000000000000  0.7500000000000000  0.2500000000000000
  0.8750000000000000  0.7500000000000000  0.2500000000000000
  0.1250000000000000  0.0000000000000000  0.5000000000000000
  0.3750000000000000  0.0000000000000000  0.5000000000000000
  0.6250000000000000  0.0000000000000000  0.5000000000000000
  0.8750000000000000  0.0000000000000000  0.5000000000000000
  0.1250000000000000  0.2500000000000000  0.5000000000000000
  0.3750000000000000  0.2500000000000000  0.5000000000000000
  0.6250000000000000  0.2500000000000000  0.5000000000000000
  0.8750000000000000  0.2500000000000000  0.5000000000000000
  0.1250000000000000  0.5000000000000000  0.5000000000000000
  0.3750000000000000  0.5000000000000000  0.5000000000000000
  0.6250000000000000  0.5000000000000000  0.5000000000000000
  0.8750000000000000  0.5000000000000000  0.5000000000000000
  0.1250000000000000  0.7500000000000000  0.5000000000000000
  0.3750000000000000  0.7500000000000000  0.5000000000000000
  0.6250000000000000  0.7500000000000000  0.5000000000000000
  0.8750000000000000  0.7500000000000000  0.5000000000000000
  0.1250000000000000  0.0000000000000000  0.7500000000000000
  0.3750000000000000  0.0000000000000000  0.7500000000000000
  0.6250000000000000  0.0000000000000000  0.7500000000000000
  0.8750000000000000  0.0000000000000000  0.7500000000000000
  0.1250000000000000  0.2500000000000000  0.7500000000000000
  0.3750000000000000  0.2500000000000000  0.7500000000000000
  0.6250000000000000  0.2500000000000000  0.7500000000000000
  0.8750000000000000  0.2500000000000000  0.7500000000000000
  0.1250000000000000  0.5000000000000000  0.7500000000000000
  0.3750000000000000  0.5000000000000000  0.7500000000000000
  0.6250000000000000  0.5000000000000000  0.7500000000000000
  0.8750000000000000  0.5000000000000000  0.7500000000000000
  0.1250000000000000  0.7500000000000000  0.7500000000000000
  0.3750000000000000  0.7500000000000000  0.7500000000000000
  0.6250000000000000  0.7500000000000000  0.7500000000000000
  0.8750000000000000  0.7500000000000000  0.7500000000000000
  0.0000000000000000  0.0000000000000000  0.1250000000000000
  0.2500000000000000  0.0000000000000000  0.1250000000000000
  0.5000000000000000  0.0000000000000000  0.1250000000000000
  0.7500000000000000  0.0000000000000000  0.1250000000000000
  0.0000000000000000  0.2500000000000000  0.1250000000000000
  0.2500000000000000  0.2500000000000000  0.1250000000000000
  0.5000000000000000  0.2500000000000000  0.1250000000000000
  0.7500000000000000  0.2500000000000000  0.1250000000000000
  0.0000000000000000  0.5000000000000000  0.1250000000000000
  0.2500000000000000  0.5000000000000000  0.1250000000000000
  0.5000000000000000  0.5000000000000000  0.1250000000000000
  0.7500000000000000  0.5000000000000000  0.1250000000000000
  0.0000000000000000  0.7500000000000000  0.1250000000000000
  0.2500000000000000  0.7500000000000000  0.1250000000000000
  0.5000000000000000  0.7500000000000000  0.1250000000000000
  0.7500000000000000  0.7500000000000000  0.1250000000000000
  0.0000000000000000  0.0000000000000000  0.3750000000000000
  0.2500000000000000  0.0000000000000000  0.3750000000000000
  0.5000000000000000  0.0000000000000000  0.3750000000000000
  0.7500000000000000  0.0000000000000000  0.3750000000000000
  0.0000000000000000  0.2500000000000000  0.3750000000000000
  0.2500000000000000  0.2500000000000000  0.3750000000000000
  0.5000000000000000  0.2500000000000000  0.3750000000000000
  0.7500000000000000  0.2500000000000000  0.3750000000000000
  0.0000000000000000  0.5000000000000000  0.3750000000000000
  0.2500000000000000  0.5000000000000000  0.3750000000000000
  0.5000000000000000  0.5000000000000000  0.3750000000000000
  0.7500000000000000  0.5000000000000000  0.3750000000000000
  0.0000000000000000  0.7500000000000000  0.3750000000000000
  0.2500000000000000  0.7500000000000000  0.3750000000000000
  0.5000000000000000  0.7500000000000000  0.3750000000000000
  0.7500000000000000  0.7500000000000000  0.3750000000000000
  0.0000000000000000  0.0000000000000000  0.6250000000000000
  0.2500000000000000  0.0000000000000000  0.6250000000000000
  0.5000000000000000  0.0000000000000000  0.6250000000000000
  0.7500000000000000  0.0000000000000000  0.6250000000000000
  0.0000000000000000  0.2500000000000000  0.6250000000000000
  0.2500000000000000  0.2500000000000000  0.6250000000000000
  0.5000000000000000  0.2500000000000000  0.6250000000000000
  0.7500000000000000  0.2500000000000000  0.6250000000000000
  0.0000000000000000  0.5000000000000000  0.6250000000000000
  0.2500000000000000  0.5000000000000000  0.6250000000000000
  0.5000000000000000  0.5000000000000000  0.6250000000000000
  0.7500000000000000  0.5000000000000000  0.6250000000000000
  0.0000000000000000  0.7500000000000000  0.6250000000000000
  0.2500000000000000  0.7500000000000000  0.6250000000000000
  0.5000000000000000  0.7500000000000000  0.6250000000000000
  0.7500000000000000  0.7500000000000000  0.6250000000000000
  0.0000000000000000  0.0000000000000000  0.8750000000000000
  0.2500000000000000  0.0000000000000000  0.8750000000000000
  0.5000000000000000  0.0000000000000000  0.8750000000000000
  0.7500000000000000  0.0000000000000000  0.8750000000000000
  0.0000000000000000  0.2500000000000000  0.8750000000000000
  0.2500000000000000  0.2500000000000000  0.8750000000000000
  0.5000000000000000  0.2500000000000000  0.8750000000000000
  0.7500000000000000  0.2500000000000000  0.8750000000000000
  0.0000000000000000  0.5000000000000000  0.8750000000000000
  0.2500000000000000  0.5000000000000000  0.8750000000000000
  0.5000000000000000  0.5000000000000000  0.8750000000000000
  0.7500000000000000  0.5000000000000000  0.8750000000000000
  0.0000000000000000  0.7500000000000000  0.8750000000000000
  0.2500000000000000  0.7500000000000000  0.8750000000000000
  0.5000000000000000  0.7500000000000000  0.8750000000000000
  0.7500000000000000  0.7500000000000000  0.8750000000000000
