generated by phonopy
   1.0
     6.0301643407868983    0.0000000000000000    0.0000000000000000
    -3.0150821703934483    5.2222755081164953    0.0000000000000000
     0.0000000000000000    0.0000000000000000   11.7414290000000001
Lu Fe O
   6    6   18
Direct
  0.0000000000000000  0.0000000000000000  0.7234730000000000
  0.0000000000000000  0.0000000000000000  0.2234730000000000
  0.3333333333333333  0.6666666666666666  0.7668070000000000
  0.6666666666666665  0.3333333333333333  0.7668070000000000
  0.6666666666666666  0.3333333333333333  0.2668070000000000
  0.3333333333333333  0.6666666666666667  0.2668070000000000
  0.0000000000000000  0.3339770000000001  0.9988210000000000
  0.3339770000000000  0.0000000000000000  0.9988210000000000
  0.6660229999999998  0.6660229999999999  0.9988210000000000
  0.0000000000000000  0.6660229999999999  0.4988210000000000
  0.6660229999999998  0.0000000000000000  0.4988210000000000
  0.3339770000000000  0.3339770000000001  0.4988210000000000
  0.0000000000000000  0.3047340000000001  0.8318719999999999
  0.3047340000000000  0.0000000000000000  0.8318719999999999
  0.6952659999999998  0.6952659999999999  0.8318719999999999
  0.0000000000000000  0.6952659999999999  0.3318719999999999
  0.6952659999999998  0.0000000000000000  0.3318719999999999
  0.3047340000000000  0.3047340000000001  0.3318719999999999
  0.0000000000000000  0.6381360000000001  0.6638940000000000
  0.6381360000000000  0.0000000000000000  0.6638940000000000
  0.3618639999999998  0.3618639999999999  0.6638940000000000
  0.0000000000000000  0.3618639999999999  0.1638940000000000
  0.3618639999999998  0.0000000000000000  0.1638940000000000
  0.6381360000000000  0.6381360000000001  0.1638940000000000
  0.0000000000000000  0.0000000000000000  0.5249950000000000
  0.0000000000000000  0.0000000000000000  0.0249950000000001
  0.3333333333333333  0.6666666666666666  0.9765710000000000
  0.6666666666666665  0.3333333333333333  0.9765710000000000
  0.6666666666666666  0.3333333333333333  0.4765709999999999
  0.3333333333333333  0.6666666666666667  0.4765709999999999
