#VESTA_FORMAT_VERSION 3.3.0


CRYSTAL

TITLE
LuFeO3 spin basis: GM4(1) hexadecapole z

GROUP
1 1 P 1
SYMOP
 0.000000  0.000000  0.000000  1  0  0   0  1  0   0  0  1   1
 -1.0 -1.0 -1.0  0 0 0  0 0 0  0 0 0
TRANM 0
 0.000000  0.000000  0.000000  1  0  0   0  1  0   0  0  1
LTRANSL
 -1
 0.000000  0.000000  0.000000  0.000000  0.000000  0.000000
LORIENT
 -1   0   0   0   0
 1.000000  0.000000  0.000000  1.000000  0.000000  0.000000
 0.000000  0.000000  1.000000  0.000000  0.000000  1.000000
LMATRIX
 1.000000  0.000000  0.000000  0.000000
 0.000000  1.000000  0.000000  0.000000
 0.000000  0.000000  1.000000  0.000000
 0.000000  0.000000  0.000000  1.000000
 0.000000  0.000000  0.000000
CELLP
   6.030164   6.030164  11.741429  90.000000  90.000000 120.000000
  0.000000   0.000000   0.000000   0.000000   0.000000   0.000000
STRUC
  1 Lu        Lu1  1.0000   0.000000   0.000000   0.723473    1a       1
                            0.000000   0.000000   0.000000  0.00
  2 Lu        Lu2  1.0000   0.000000   0.000000   0.223473    1a       1
                            0.000000   0.000000   0.000000  0.00
  3 Lu        Lu3  1.0000   0.333333   0.666667   0.766807    1a       1
                            0.000000   0.000000   0.000000  0.00
  4 Lu        Lu4  1.0000   0.666667   0.333333   0.766807    1a       1
                            0.000000   0.000000   0.000000  0.00
  5 Lu        Lu5  1.0000   0.666667   0.333333   0.266807    1a       1
                            0.000000   0.000000   0.000000  0.00
  6 Lu        Lu6  1.0000   0.333333   0.666667   0.266807    1a       1
                            0.000000   0.000000   0.000000  0.00
  7 Fe        Fe1  1.0000   0.000000   0.333977   0.998821    1a       1
                            0.000000   0.000000   0.000000  0.00
  8 Fe        Fe2  1.0000   0.333977   0.000000   0.998821    1a       1
                            0.000000   0.000000   0.000000  0.00
  9 Fe        Fe3  1.0000   0.666023   0.666023   0.998821    1a       1
                            0.000000   0.000000   0.000000  0.00
  10 Fe        Fe4  1.0000   0.000000   0.666023   0.498821    1a       1
                            0.000000   0.000000   0.000000  0.00
  11 Fe        Fe5  1.0000   0.666023   0.000000   0.498821    1a       1
                            0.000000   0.000000   0.000000  0.00
  12 Fe        Fe6  1.0000   0.333977   0.333977   0.498821    1a       1
                            0.000000   0.000000   0.000000  0.00
  13 O         O1   1.0000   0.000000   0.304734   0.831872    1a       1
                            0.000000   0.000000   0.000000  0.00
  14 O         O2   1.0000   0.304734   0.000000   0.831872    1a       1
                            0.000000   0.000000   0.000000  0.00
  15 O         O3   1.0000   0.695266   0.695266   0.831872    1a       1
                            0.000000   0.000000   0.000000  0.00
  16 O         O4   1.0000   0.000000   0.695266   0.331872    1a       1
                            0.000000   0.000000   0.000000  0.00
  17 O         O5   1.0000   0.695266   0.000000   0.331872    1a       1
                            0.000000   0.000000   0.000000  0.00
  18 O         O6   1.0000   0.304734   0.304734   0.331872    1a       1
                            0.000000   0.000000   0.000000  0.00
  19 O         O7   1.0000   0.000000   0.638136   0.663894    1a       1
                            0.000000   0.000000   0.000000  0.00
  20 O         O8   1.0000   0.638136   0.000000   0.663894    1a       1
                            0.000000   0.000000   0.000000  0.00
  21 O         O9   1.0000   0.361864   0.361864   0.663894    1a       1
                            0.000000   0.000000   0.000000  0.00
  22 O         O10  1.0000   0.000000   0.361864   0.163894    1a       1
                            0.000000   0.000000   0.000000  0.00
  23 O         O11  1.0000   0.361864   0.000000   0.163894    1a       1
                            0.000000   0.000000   0.000000  0.00
  24 O         O12  1.0000   0.638136   0.638136   0.163894    1a       1
                            0.000000   0.000000   0.000000  0.00
  25 O         O13  1.0000   0.000000   0.000000   0.524995    1a       1
                            0.000000   0.000000   0.000000  0.00
  26 O         O14  1.0000   0.000000   0.000000   0.024995    1a       1
                            0.000000   0.000000   0.000000  0.00
  27 O         O15  1.0000   0.333333   0.666667   0.976571    1a       1
                            0.000000   0.000000   0.000000  0.00
  28 O         O16  1.0000   0.666667   0.333333   0.976571    1a       1
                            0.000000   0.000000   0.000000  0.00
  29 O         O17  1.0000   0.666667   0.333333   0.476571    1a       1
                            0.000000   0.000000   0.000000  0.00
  30 O         O18  1.0000   0.333333   0.666667   0.476571    1a       1
                            0.000000   0.000000   0.000000  0.00
  0 0 0 0 0 0 0
THERI 0
  1        Lu1  1.000000
  2        Lu2  1.000000
  3        Lu3  1.000000
  4        Lu4  1.000000
  5        Lu5  1.000000
  6        Lu6  1.000000
  7        Fe1  1.000000
  8        Fe2  1.000000
  9        Fe3  1.000000
  10        Fe4  1.000000
  11        Fe5  1.000000
  12        Fe6  1.000000
  13         O1  1.000000
  14         O2  1.000000
  15         O3  1.000000
  16         O4  1.000000
  17         O5  1.000000
  18         O6  1.000000
  19         O7  1.000000
  20         O8  1.000000
  21         O9  1.000000
  22        O10  1.000000
  23        O11  1.000000
  24        O12  1.000000
  25        O13  1.000000
  26        O14  1.000000
  27        O15  1.000000
  28        O16  1.000000
  29        O17  1.000000
  30        O18  1.000000
  0 0 0
SHAPE
  0       0       0       0   0.000000  0   192   192   192   192
BOUND
       0        1         0        1         0        1
  0   0   0   0  0
SBOND
  0 0 0 0
SITET
  1        Lu1  1.7200  38 253 181  38 253 181 204  0
  2        Lu2  1.7200  38 253 181  38 253 181 204  0
  3        Lu3  1.7200  38 253 181  38 253 181 204  0
  4        Lu4  1.7200  38 253 181  38 253 181 204  0
  5        Lu5  1.7200  38 253 181  38 253 181 204  0
  6        Lu6  1.7200  38 253 181  38 253 181 204  0
  7        Fe1  1.2600 181 114   0 181 114   0 204  0
  8        Fe2  1.2600 181 114   0 181 114   0 204  0
  9        Fe3  1.2600 181 114   0 181 114   0 204  0
  10        Fe4  1.2600 181 114   0 181 114   0 204  0
  11        Fe5  1.2600 181 114   0 181 114   0 204  0
  12        Fe6  1.2600 181 114   0 181 114   0 204  0
  13         O1  0.7400 255   3   0 255   3   0 204  0
  14         O2  0.7400 255   3   0 255   3   0 204  0
  15         O3  0.7400 255   3   0 255   3   0 204  0
  16         O4  0.7400 255   3   0 255   3   0 204  0
  17         O5  0.7400 255   3   0 255   3   0 204  0
  18         O6  0.7400 255   3   0 255   3   0 204  0
  19         O7  0.7400 255   3   0 255   3   0 204  0
  20         O8  0.7400 255   3   0 255   3   0 204  0
  21         O9  0.7400 255   3   0 255   3   0 204  0
  22        O10  0.7400 255   3   0 255   3   0 204  0
  23        O11  0.7400 255   3   0 255   3   0 204  0
  24        O12  0.7400 255   3   0 255   3   0 204  0
  25        O13  0.7400 255   3   0 255   3   0 204  0
  26        O14  0.7400 255   3   0 255   3   0 204  0
  27        O15  0.7400 255   3   0 255   3   0 204  0
  28        O16  0.7400 255   3   0 255   3   0 204  0
  29        O17  0.7400 255   3   0 255   3   0 204  0
  30        O18  0.7400 255   3   0 255   3   0 204  0
  0 0 0 0 0 0
VECTR
    1   0.00000   0.00000   0.00000
    1 0 0 0 0
  0 0 0 0 0
    2   0.00000   0.00000   0.00000
    2 0 0 0 0
  0 0 0 0 0
    3   0.00000   0.00000   0.00000
    3 0 0 0 0
  0 0 0 0 0
    4   0.00000   0.00000   0.00000
    4 0 0 0 0
  0 0 0 0 0
    5   0.00000   0.00000   0.00000
    5 0 0 0 0
  0 0 0 0 0
    6   0.00000   0.00000   0.00000
    6 0 0 0 0
  0 0 0 0 0
    7   0.00000   0.00000   1.50000
    7 0 0 0 0
  0 0 0 0 0
    8   0.00000   0.00000   1.50000
    8 0 0 0 0
  0 0 0 0 0
    9   0.00000   0.00000   1.50000
    9 0 0 0 0
  0 0 0 0 0
   10   0.00000   0.00000  -1.50000
   10 0 0 0 0
  0 0 0 0 0
   11   0.00000   0.00000  -1.50000
   11 0 0 0 0
  0 0 0 0 0
   12   0.00000   0.00000  -1.50000
   12 0 0 0 0
  0 0 0 0 0
   13   0.00000   0.00000   0.00000
   13 0 0 0 0
  0 0 0 0 0
   14   0.00000   0.00000   0.00000
   14 0 0 0 0
  0 0 0 0 0
   15   0.00000   0.00000   0.00000
   15 0 0 0 0
  0 0 0 0 0
   16   0.00000   0.00000   0.00000
   16 0 0 0 0
  0 0 0 0 0
   17   0.00000   0.00000   0.00000
   17 0 0 0 0
  0 0 0 0 0
   18   0.00000   0.00000   0.00000
   18 0 0 0 0
  0 0 0 0 0
   19   0.00000   0.00000   0.00000
   19 0 0 0 0
  0 0 0 0 0
   20   0.00000   0.00000   0.00000
   20 0 0 0 0
  0 0 0 0 0
   21   0.00000   0.00000   0.00000
   21 0 0 0 0
  0 0 0 0 0
   22   0.00000   0.00000   0.00000
   22 0 0 0 0
  0 0 0 0 0
   23   0.00000   0.00000   0.00000
   23 0 0 0 0
  0 0 0 0 0
   24   0.00000   0.00000   0.00000
   24 0 0 0 0
  0 0 0 0 0
   25   0.00000   0.00000   0.00000
   25 0 0 0 0
  0 0 0 0 0
   26   0.00000   0.00000   0.00000
   26 0 0 0 0
  0 0 0 0 0
   27   0.00000   0.00000   0.00000
   27 0 0 0 0
  0 0 0 0 0
   28   0.00000   0.00000   0.00000
   28 0 0 0 0
  0 0 0 0 0
   29   0.00000   0.00000   0.00000
   29 0 0 0 0
  0 0 0 0 0
   30   0.00000   0.00000   0.00000
   30 0 0 0 0
  0 0 0 0 0
0 0 0 0 0
VECTT
    1  0.500 255   0   0 0
    2  0.500 255   0   0 0
    3  0.500 255   0   0 0
    4  0.500 255   0   0 0
    5  0.500 255   0   0 0
    6  0.500 255   0   0 0
    7  0.500 255   0   0 0
    8  0.500 255   0   0 0
    9  0.500 255   0   0 0
   10  0.500 255   0   0 0
   11  0.500 255   0   0 0
   12  0.500 255   0   0 0
   13  0.500 255   0   0 0
   14  0.500 255   0   0 0
   15  0.500 255   0   0 0
   16  0.500 255   0   0 0
   17  0.500 255   0   0 0
   18  0.500 255   0   0 0
   19  0.500 255   0   0 0
   20  0.500 255   0   0 0
   21  0.500 255   0   0 0
   22  0.500 255   0   0 0
   23  0.500 255   0   0 0
   24  0.500 255   0   0 0
   25  0.500 255   0   0 0
   26  0.500 255   0   0 0
   27  0.500 255   0   0 0
   28  0.500 255   0   0 0
   29  0.500 255   0   0 0
   30  0.500 255   0   0 0
0 0 0 0 0
SPLAN
  0   0   0   0
LBLAT
 -1
LBLSP
 -1
DLATM
 -1
DLBND
 -1
DLPLY
 -1
PLN2D
  0   0   0   0
ATOMT
  1         Lu  1.7200  38 253 181  38 253 181 204
  2         Fe  1.2600 181 114   0 181 114   0 204
  3          O  0.7400 255   3   0 255   3   0 204
  0 0 0 0 0 0
SCENE
 1.000000  0.000000  0.000000  0.000000
 0.000000  1.000000  0.000000  0.000000
 0.000000  0.000000  1.000000  0.000000
 0.000000  0.000000  0.000000  1.000000
  0.000   0.000
  0.000
  1.000
HBOND 0 2

STYLE
DISPF 37753794
MODEL   0  1  0
SURFS   0  1  1
SECTS  96  1
FORMS   0  1
ATOMS   0  0  1
BONDS   1
POLYS   1
VECTS 1.000000
FORMP
  1  1.0   0   0   0
ATOMP
 24  24   0  50  2.0   0
BONDP
  1  16  0.250  2.000 127 127 127
POLYP
 204 1  1.000 180 180 180
ISURF
  0   0   0   0
TEX3P
  1 0.00000E+000 1.00000E+000
SECTP
  1 0.00000E+000 1.00000E+000 0.00000E+000
HKLPP
  92 0  1.000   0 128 255
UCOLP
   0   1  1.000   0   0   0
COMPS 1
LABEL 1    12  1.000 0
PROJT 0  0.962
BKGRC
 255 255 255
DPTHQ 1 -0.5000  3.5000
LIGHT0 1
 1.000000  0.000000  0.000000  0.000000
 0.000000  1.000000  0.000000  0.000000
 0.000000  0.000000  1.000000  0.000000
 0.000000  0.000000  0.000000  1.000000
 0.000000  0.000000 20.000000  0.000000
 0.000000  0.000000 -1.000000
  26  26  26 255
 179 179 179 255
 255 255 255 255
LIGHT1
 1.000000  0.000000  0.000000  0.000000
 0.000000  1.000000  0.000000  0.000000
 0.000000  0.000000  1.000000  0.000000
 0.000000  0.000000  0.000000  1.000000
 0.000000  0.000000 20.000000  0.000000
 0.000000  0.000000 -1.000000
   0   0   0   0
   0   0   0   0
   0   0   0   0
LIGHT2
 1.000000  0.000000  0.000000  0.000000
 0.000000  1.000000  0.000000  0.000000
 0.000000  0.000000  1.000000  0.000000
 0.000000  0.000000  0.000000  1.000000
 0.000000  0.000000 20.000000  0.000000
 0.000000  0.000000 -1.000000
   0   0   0   0
   0   0   0   0
   0   0   0   0
LIGHT3
 1.000000  0.000000  0.000000  0.000000
 0.000000  1.000000  0.000000  0.000000
 0.000000  0.000000  1.000000  0.000000
 0.000000  0.000000  0.000000  1.000000
 0.000000  0.000000 20.000000  0.000000
 0.000000  0.000000 -1.000000
   0   0   0   0
   0   0   0   0
   0   0   0   0
ATOMM
 204 204 204 255
  25.600
BONDM
 255 255 255 255
 128.000
POLYM
 255 255 255 255
 128.000
SURFM
   0   0   0 255
 128.000
FORMM
 255 255 255 255
 128.000
HKLPM
 255 255 255 255
 128.000
